     Program PWSCF v.7.2 starts on 10Jun2024 at 10:37:17

     Waiting for input...
     Reading input from standard input

     Current dimensions of program PWSCF are:
     Max number of different atomic species (ntypx) = 10
     Max number of k-points (npk) =  40000
     Max angular momentum in pseudopotentials (lmaxx) =  4

     Using Slab Decomposition

     bravais-lattice index     =            4
     lattice parameter (alat)  =       7.5797  a.u.
     unit-cell volume          =     618.0108 (a.u.)^3
     number of atoms/cell      =            4
     number of atomic types    =            2
     number of electrons       =        52.00
     number of Kohn-Sham states=           26
     kinetic-energy cutoff     =      60.0000  Ry
     charge density cutoff     =     240.0000  Ry
     scf convergence threshold =      1.0E-07
     mixing beta               =       0.7000
     number of iterations used =            8  plain     mixing
     energy convergence thresh.=      1.0E-05
     force convergence thresh. =      1.0E-04
     press convergence thresh. =      5.0E-01
     Exchange-correlation= PBE
                           (   1   4   3   4   0   0   0)
     nstep                     =           50

     celldm(1)=   7.579691  celldm(2)=   0.000000  celldm(3)=   1.638743
     celldm(4)=   0.000000  celldm(5)=   0.000000  celldm(6)=   0.000000

     crystal axes: (cart. coord. in units of alat)
               a(1) = (   1.000000   0.000000   0.000000 )
               a(2) = (  -0.500000   0.866025   0.000000 )
               a(3) = (   0.000000   0.000000   1.638743 )

     reciprocal axes: (cart. coord. in units 2 pi/alat)
               b(1) = (  1.000000  0.577350 -0.000000 )
               b(2) = (  0.000000  1.154701  0.000000 )
               b(3) = (  0.000000 -0.000000  0.610224 )

     PseudoPot. # 1 for Zn read from file:
     /home/paolo/project_labqsm/pseudopotentials/Zn_ONCV_PBE-1.2.upf
     MD5 check sum: 732f41c0cd6489a4b50a33b4ec99a2d3
     Pseudo is Norm-conserving, Zval = 20.0
     Generated using ONCVPSP code by D. R. Hamann
     Using radial grid of  602 points,  6 beta functions with:
                l(1) =   0
                l(2) =   0
                l(3) =   1
                l(4) =   1
                l(5) =   2
                l(6) =   2

     PseudoPot. # 2 for S  read from file:
     /home/paolo/project_labqsm/pseudopotentials/S_ONCV_PBE-1.2.upf
     MD5 check sum: f9d020296ee6110346977bfd66d424f6
     Pseudo is Norm-conserving, Zval =  6.0
     Generated using ONCVPSP code by D. R. Hamann
     Using radial grid of  602 points,  4 beta functions with:
                l(1) =   0
                l(2) =   0
                l(3) =   1
                l(4) =   1

     atomic species   valence    mass     pseudopotential
        Zn            20.00    65.38000     Zn( 1.00)
        S              6.00    32.06000     S ( 1.00)

      6 Sym. Ops. (no inversion) found

   Cartesian axes

     site n.     atom                  positions (alat units)
         1           Zn  tau(   1) = (   0.0000000   0.0000000   0.0000000  )
         2           S   tau(   2) = (   0.0000000   0.0000000   0.3723729  )
         3           Zn  tau(   3) = (   0.0000000   0.5773503   0.5000000  )
         4           S   tau(   4) = (   0.0000000   0.5773503   0.8723729  )

     number of k points=    34
                       cart. coord. in units 2pi/alat
        k(    1) = (   0.0000000   0.0000000   0.0000000), wk =   0.0092593
        k(    2) = (   0.0000000   0.0000000   0.1017039), wk =   0.0185185
        k(    3) = (   0.0000000   0.0000000   0.2034079), wk =   0.0185185
        k(    4) = (   0.0000000   0.0000000  -0.3051118), wk =   0.0092593
        k(    5) = (   0.0000000   0.1924501   0.0000000), wk =   0.0555556
        k(    6) = (   0.0000000   0.1924501   0.1017039), wk =   0.0555556
        k(    7) = (   0.0000000   0.1924501   0.2034079), wk =   0.0555556
        k(    8) = (   0.0000000   0.1924501  -0.3051118), wk =   0.0555556
        k(    9) = (   0.0000000   0.3849002   0.0000000), wk =   0.0555556
        k(   10) = (   0.0000000   0.3849002   0.1017039), wk =   0.0555556
        k(   11) = (   0.0000000   0.3849002   0.2034079), wk =   0.0555556
        k(   12) = (   0.0000000   0.3849002  -0.3051118), wk =   0.0555556
        k(   13) = (   0.0000000  -0.5773503   0.0000000), wk =   0.0277778
        k(   14) = (   0.0000000  -0.5773503   0.1017039), wk =   0.0555556
        k(   15) = (   0.0000000  -0.5773503   0.2034079), wk =   0.0555556
        k(   16) = (   0.0000000  -0.5773503  -0.3051118), wk =   0.0277778
        k(   17) = (   0.1666667   0.2886751   0.0000000), wk =   0.0555556
        k(   18) = (   0.1666667   0.2886751   0.1017039), wk =   0.1111111
        k(   19) = (   0.1666667   0.2886751   0.2034079), wk =   0.1111111
        k(   20) = (   0.1666667   0.2886751  -0.3051118), wk =   0.0555556
        k(   21) = (   0.1666667   0.4811252   0.0000000), wk =   0.1111111
        k(   22) = (   0.1666667   0.4811252   0.1017039), wk =   0.1111111
        k(   23) = (   0.1666667   0.4811252   0.2034079), wk =   0.1111111
        k(   24) = (   0.1666667   0.4811252  -0.3051118), wk =   0.1111111
        k(   25) = (   0.3333333   0.5773503   0.0000000), wk =   0.0185185
        k(   26) = (   0.3333333   0.5773503   0.1017039), wk =   0.0370370
        k(   27) = (   0.3333333   0.5773503   0.2034079), wk =   0.0370370
        k(   28) = (   0.3333333   0.5773503  -0.3051118), wk =   0.0185185
        k(   29) = (   0.0000000  -0.1924501   0.1017039), wk =   0.0555556
        k(   30) = (   0.0000000  -0.1924501   0.2034079), wk =   0.0555556
        k(   31) = (   0.0000000  -0.3849002   0.1017039), wk =   0.0555556
        k(   32) = (   0.0000000  -0.3849002   0.2034079), wk =   0.0555556
        k(   33) = (  -0.1666667  -0.4811252   0.1017039), wk =   0.1111111
        k(   34) = (  -0.1666667  -0.4811252   0.2034079), wk =   0.1111111

     Initial potential from superposition of free atoms

     starting charge      51.9339, renormalised to      52.0000
     Starting wfcs are random

     Self-consistent Calculation

     iteration #  1     ecut=    60.00 Ry     beta= 0.70
     Davidson diagonalization with overlap
     ethr =  1.00E-02,  avg # of iterations = 15.2

     total energy              =    -839.52453301 Ry
     estimated scf accuracy    <       1.22102702 Ry

[...]

     End of self-consistent calculation

          k = 0.0000 0.0000 0.0000 (  4831 PWs)   bands (ev):

  -122.5261-121.4434 -77.6465 -76.5087 -76.4091 -76.4091 -75.4002 -75.4002
   -10.3561  -7.7275  -4.7853  -4.7444  -4.7444  -3.4730  -3.4730  -2.8402
    -2.8402  -2.3783  -2.2255  -2.2255   1.0001   3.1263   3.1263   5.0832
     6.3712   6.3930

[...]

          k =-0.1667-0.4811 0.1017 (  4845 PWs)   bands (ev):

[...]

     highest occupied level (ev):     6.5935

!    total energy              =    -840.19078144 Ry
     estimated scf accuracy    <       0.00000009 Ry

     The total energy is the sum of the following terms:
     one-electron contribution =    -862.36639105 Ry
     hartree contribution      =     431.26431367 Ry
     xc contribution           =     -82.50908385 Ry
     ewald contribution        =    -326.57962021 Ry

     convergence has been achieved in  19 iterations

     Forces acting on atoms (cartesian axes, Ry/au):

     atom    1 type  1   force =     0.00000000   -0.00000000   -1.55385892
     atom    2 type  2   force =     0.00000000    0.00000000    1.40039537
     atom    3 type  1   force =     0.00000000   -0.00000000   -1.48275541
     atom    4 type  2   force =     0.00000000    0.00000000    1.63621896
     The non-local contrib.  to forces
     atom    1 type  1   force =     0.00000000    0.00000000    1.15377603
     atom    2 type  2   force =     0.00000000    0.00000000    1.09098207
     atom    3 type  1   force =     0.00000000   -0.00000000    0.46921315
     atom    4 type  2   force =     0.00000000    0.00000000    1.33702476
     The ionic contribution  to forces
     atom    1 type  1   force =    -0.00000000   -0.00000000  -62.11893116
     atom    2 type  2   force =    -0.00000000   -0.00000001   21.68846785
     atom    3 type  1   force =    -0.00000000    0.00000001    7.69414732
     atom    4 type  2   force =     0.00000000    0.00000000   32.73631599
     The local contribution  to forces
     atom    1 type  1   force =     0.00000000   -0.00000000   59.41181291
     atom    2 type  2   force =     0.00000000   -0.00000000  -21.37853729
     atom    3 type  1   force =     0.00000000    0.00000051   -9.64451642
     atom    4 type  2   force =     0.00000000    0.00000001  -32.43737562
     The core correction contribution to forces
     atom    1 type  1   force =     0.00000000    0.00000000    0.00000000
     atom    2 type  2   force =     0.00000000    0.00000000    0.00000000
     atom    3 type  1   force =     0.00000000    0.00000000    0.00000000
     atom    4 type  2   force =     0.00000000    0.00000000    0.00000000
     The Hubbard contrib.    to forces
     atom    1 type  1   force =     0.00000000    0.00000000    0.00000000
     atom    2 type  2   force =     0.00000000    0.00000000    0.00000000
     atom    3 type  1   force =     0.00000000    0.00000000    0.00000000
     atom    4 type  2   force =     0.00000000    0.00000000    0.00000000
     The SCF correction term to forces
     atom    1 type  1   force =     0.00000000    0.00000000   -0.00051477
     atom    2 type  2   force =     0.00000000    0.00000000   -0.00051532
     atom    3 type  1   force =     0.00000000   -0.00000000   -0.00159752
     atom    4 type  2   force =    -0.00000000   -0.00000000    0.00025578

     Total force =     3.041605     Total SCF correction =     0.001774

     Computing stress (Cartesian axis) and pressure

          total   stress  (Ry/bohr**3)                   (kbar)     P=      725.73
   0.00041724   0.00000000   0.00000000           61.38        0.00        0.00
   0.00000000   0.00041724   0.00000000            0.00       61.38        0.00
   0.00000000   0.00000000   0.01396572            0.00        0.00     2054.43

     BFGS Geometry Optimization
     Energy error            =      0.0E+00 Ry
     Gradient error          =      1.6E+00 Ry/Bohr
     Cell gradient error     =      2.1E+03 kbar

     number of scf cycles    =   1
     number of bfgs steps    =   0

     enthalpy           new  =    -840.1907814402 Ry

     new trust radius        =       0.5000000000 bohr
     new conv_thr            =       0.0000001000 Ry

     new unit-cell volume =    684.25356 a.u.^3 (   101.39592 Ang^3 )
     density =      3.19151 g/cm^3

CELL_PARAMETERS (alat=  7.57969094)
   1.003004450   0.000000000   0.000000000
  -0.501502225   0.868627334   0.000000000
   0.000000000   0.000000000   1.803541833

ATOMIC_POSITIONS (alat)
Zn            0.0000000000       -0.0000000000       -0.0649851476
S             0.0000000000        0.0000000000        0.4683871793
Zn            0.0000000000        0.5790848891        0.4882704608
S             0.0000000000        0.5790848891        1.0285316751

     Writing config-only to output data dir /home/paolo/project_labqsm/ZnS_wurtzite/SCRATCH/zns_w.save/
     NEW-OLD atomic charge density approx. for the potential
     extrapolated charge   57.02773, renormalised to   52.00000

[...]

     iteration #  1     ecut=    60.00 Ry     beta= 0.70
     Davidson diagonalization with overlap
     c_bands:  1 eigenvalues not converged
     c_bands:  1 eigenvalues not converged
     c_bands:  1 eigenvalues not converged
     c_bands:  1 eigenvalues not converged
     c_bands:  1 eigenvalues not converged
     c_bands:  1 eigenvalues not converged
     c_bands:  1 eigenvalues not converged
     ethr =  1.00E-06,  avg # of iterations = 36.5

[...]

     Energy error            =      1.2E+00 Ry
     Gradient error          =      9.9E-02 Ry/Bohr
     Cell gradient error     =      2.0E+02 kbar

[...]

     enthalpy           old  =    -840.1907814402 Ry
     enthalpy           new  =    -841.3785994743 Ry

     CASE: enthalpy          _new < enthalpy          _old

[...]

     WARNING: bfgs curvature condition failed, Theta= 0.813
     new trust radius        =       0.2604014702 bohr
     new conv_thr            =       0.0000001000 Ry

[...]

     Writing config-only to output data dir /home/paolo/project_labqsm/ZnS_wurtzite/SCRATCH/zns_w.save/
     NEW-OLD atomic charge density approx. for the potential

     negative rho (up, down):  1.355E-04 0.000E+00
     extrapolated charge   46.10026, renormalised to   52.00000

[...]

     Writing config-only to output data dir /home/paolo/project_labqsm/ZnS_wurtzite/SCRATCH/zns_w.save/
     NEW-OLD atomic charge density approx. for the potential

     negative rho (up, down):  4.803E-02 0.000E+00
     extrapolated charge   41.30725, renormalised to   52.00000

[...]

     negative rho (up, down):  5.564E-04 0.000E+00

[...]

     negative rho (up, down):  3.553E-05 0.000E+00

[...]

     Threshold (ethr) on eigenvalues was too large:
     Diagonalizing with lowered threshold

     Davidson diagonalization with overlap
     ethr =  2.36E-08,  avg # of iterations =  2.2

[...]

     new trust radius        =       0.0002042893 bohr
     new conv_thr            =       0.0000000010 Ry

[...]

     number of scf cycles    =  25
     number of bfgs steps    =  24

     enthalpy           old  =    -841.8052476320 Ry
     enthalpy           new  =    -841.8052477187 Ry

     CASE: enthalpy          _new < enthalpy          _old

     WARNING: bfgs curvature condition failed, Theta= 0.622
     new trust radius        =       0.0002247188 bohr
     new conv_thr            =       0.0000000010 Ry

     new unit-cell volume =    544.20145 a.u.^3 (    80.64233 Ang^3 )
     density =      4.01285 g/cm^3

[...]

ATOMIC_POSITIONS (alat)
Zn           -0.0000000000       -0.0000000000       -0.2688072249
S             0.0000000000       -0.0000000000        0.3197001906
Zn            0.0000000000        0.5532952755        0.5167569277
S             0.0000000000        0.5532952755        1.1052138849

     Writing config-only to output data dir /home/paolo/project_labqsm/ZnS_wurtzite/SCRATCH/zns_w.save/
     NEW-OLD atomic charge density approx. for the potential
     extrapolated charge   51.99851, renormalised to   52.00000

[...]

     Threshold (ethr) on eigenvalues was too large:
     Diagonalizing with lowered threshold

     Davidson diagonalization with overlap
     ethr =  7.55E-10,  avg # of iterations =  3.0

[...]

     Total force =     0.000088     Total SCF correction =     0.000023
     SCF correction compared to forces is large: reduce conv_thr to get better values

[...]

     Energy error            =      2.1E-08 Ry
     Gradient error          =      5.7E-05 Ry/Bohr
     Cell gradient error     =      1.0E-01 kbar

     bfgs converged in  26 scf cycles and  25 bfgs steps
     (criteria: energy <  1.0E-05 Ry, force <  1.0E-04 Ry/Bohr, cell <  5.0E-01 kbar)

     End of BFGS Geometry Optimization

     Final enthalpy           =    -841.8052477401 Ry

     File /home/paolo/project_labqsm/ZnS_wurtzite/SCRATCH/zns_w.bfgs deleted, as requested
Begin final coordinates
     new unit-cell volume =    544.20145 a.u.^3 (    80.64233 Ang^3 )
     density =      4.01285 g/cm^3

CELL_PARAMETERS (alat=  7.57969094)
   0.958335529  -0.000000000   0.000000000
  -0.479167765   0.829942914   0.000000000
   0.000000000   0.000000000   1.571228652

ATOMIC_POSITIONS (alat)
Zn           -0.0000000000       -0.0000000000       -0.2688072249
S             0.0000000000       -0.0000000000        0.3197001906
Zn            0.0000000000        0.5532952755        0.5167569277
S             0.0000000000        0.5532952755        1.1052138849
End final coordinates

     Writing config-only to output data dir /home/paolo/project_labqsm/ZnS_wurtzite/SCRATCH/zns_w.save/

     Final scf calculation at the relaxed structure.
     The G-vectors are recalculated for the final unit cell
     Results may differ from those at the preceding step.

     Using Slab Decomposition

     bravais-lattice index     =            4
     lattice parameter (alat)  =       7.5797  a.u.
     unit-cell volume          =     544.2014 (a.u.)^3
     number of atoms/cell      =            4
     number of atomic types    =            2
     number of electrons       =        52.00
     number of Kohn-Sham states=           26
     kinetic-energy cutoff     =      60.0000  Ry
     charge density cutoff     =     240.0000  Ry
     scf convergence threshold =      1.0E-09
     mixing beta               =       0.7000
     number of iterations used =            8  plain     mixing
     press convergence thresh. =      5.0E-01
     Exchange-correlation= PBE
                           (   1   4   3   4   0   0   0)

     celldm(1)=   7.579691  celldm(2)=   0.000000  celldm(3)=   1.638743
     celldm(4)=   0.000000  celldm(5)=   0.000000  celldm(6)=   0.000000

     crystal axes: (cart. coord. in units of alat)
               a(1) = (   0.958336  -0.000000   0.000000 )
               a(2) = (  -0.479168   0.829943   0.000000 )
               a(3) = (   0.000000   0.000000   1.571229 )

     reciprocal axes: (cart. coord. in units 2 pi/alat)
               b(1) = (  1.043476  0.602451 -0.000000 )
               b(2) = (  0.000000  1.204902 -0.000000 )
               b(3) = ( -0.000000 -0.000000  0.636445 )

     PseudoPot. # 1 for Zn read from file:
     /home/paolo/project_labqsm/pseudopotentials/Zn_ONCV_PBE-1.2.upf
     MD5 check sum: 732f41c0cd6489a4b50a33b4ec99a2d3
     Pseudo is Norm-conserving, Zval = 20.0
     Generated using ONCVPSP code by D. R. Hamann
     Using radial grid of  602 points,  6 beta functions with:
                l(1) =   0
                l(2) =   0
                l(3) =   1
                l(4) =   1
                l(5) =   2
                l(6) =   2

     PseudoPot. # 2 for S  read from file:
     /home/paolo/project_labqsm/pseudopotentials/S_ONCV_PBE-1.2.upf
     MD5 check sum: f9d020296ee6110346977bfd66d424f6
     Pseudo is Norm-conserving, Zval =  6.0
     Generated using ONCVPSP code by D. R. Hamann
     Using radial grid of  602 points,  4 beta functions with:
                l(1) =   0
                l(2) =   0
                l(3) =   1
                l(4) =   1

     atomic species   valence    mass     pseudopotential
        Zn            20.00    65.38000     Zn( 1.00)
        S              6.00    32.06000     S ( 1.00)

      6 Sym. Ops. (no inversion) found

   Cartesian axes

     site n.     atom                  positions (alat units)
         1           Zn  tau(   1) = (  -0.0000000  -0.0000000  -0.2688072  )
         2           S   tau(   2) = (   0.0000000  -0.0000000   0.3197002  )
         3           Zn  tau(   3) = (   0.0000000   0.5532953   0.5167569  )
         4           S   tau(   4) = (   0.0000000   0.5532953   1.1052139  )

     number of k points=    34
                       cart. coord. in units 2pi/alat
        k(    1) = (   0.0000000   0.0000000   0.0000000), wk =   0.0092593
        k(    2) = (  -0.0000000  -0.0000000   0.1060741), wk =   0.0185185
        k(    3) = (  -0.0000000  -0.0000000   0.2121482), wk =   0.0185185
        k(    4) = (   0.0000000   0.0000000  -0.3182223), wk =   0.0092593
        k(    5) = (   0.0000000   0.2008170  -0.0000000), wk =   0.0555556
        k(    6) = (   0.0000000   0.2008170   0.1060741), wk =   0.0555556
        k(    7) = (   0.0000000   0.2008170   0.2121482), wk =   0.0555556
        k(    8) = (   0.0000000   0.2008170  -0.3182223), wk =   0.0555556
        k(    9) = (   0.0000000   0.4016340  -0.0000000), wk =   0.0555556
        k(   10) = (   0.0000000   0.4016340   0.1060741), wk =   0.0555556
        k(   11) = (   0.0000000   0.4016340   0.2121482), wk =   0.0555556
        k(   12) = (   0.0000000   0.4016340  -0.3182223), wk =   0.0555556
        k(   13) = (  -0.0000000  -0.6024511   0.0000000), wk =   0.0277778
        k(   14) = (  -0.0000000  -0.6024511   0.1060741), wk =   0.0555556
        k(   15) = (  -0.0000000  -0.6024511   0.2121482), wk =   0.0555556
        k(   16) = (  -0.0000000  -0.6024511  -0.3182223), wk =   0.0277778
        k(   17) = (   0.1739126   0.3012255  -0.0000000), wk =   0.0555556
        k(   18) = (   0.1739126   0.3012255   0.1060741), wk =   0.1111111
        k(   19) = (   0.1739126   0.3012255   0.2121482), wk =   0.1111111
        k(   20) = (   0.1739126   0.3012255  -0.3182223), wk =   0.0555556
        k(   21) = (   0.1739126   0.5020426  -0.0000000), wk =   0.1111111
        k(   22) = (   0.1739126   0.5020426   0.1060741), wk =   0.1111111
        k(   23) = (   0.1739126   0.5020426   0.2121482), wk =   0.1111111
        k(   24) = (   0.1739126   0.5020426  -0.3182223), wk =   0.1111111
        k(   25) = (   0.3478253   0.6024511  -0.0000000), wk =   0.0185185
        k(   26) = (   0.3478253   0.6024511   0.1060741), wk =   0.0370370
        k(   27) = (   0.3478253   0.6024511   0.2121482), wk =   0.0370370
        k(   28) = (   0.3478253   0.6024511  -0.3182223), wk =   0.0185185
        k(   29) = (  -0.0000000  -0.2008170   0.1060741), wk =   0.0555556
        k(   30) = (  -0.0000000  -0.2008170   0.2121482), wk =   0.0555556
        k(   31) = (  -0.0000000  -0.4016340   0.1060741), wk =   0.0555556
        k(   32) = (  -0.0000000  -0.4016340   0.2121482), wk =   0.0555556
        k(   33) = (  -0.1739126  -0.5020426   0.1060741), wk =   0.1111111
        k(   34) = (  -0.1739126  -0.5020426   0.2121482), wk =   0.1111111

     Initial potential from superposition of free atoms

     starting charge      51.9339, renormalised to      52.0000
     Starting wfcs are random

     Self-consistent Calculation

     iteration #  1     ecut=    60.00 Ry     beta= 0.70
     Davidson diagonalization with overlap
     c_bands:  1 eigenvalues not converged
     ethr =  1.00E-06,  avg # of iterations = 34.0

[...]

     total energy              =    -841.79945492 Ry
     estimated scf accuracy    <          1.7E-09 Ry

     iteration # 11     ecut=    60.00 Ry     beta= 0.70
     Davidson diagonalization with overlap
     ethr =  3.20E-12,  avg # of iterations =  2.1

     End of self-consistent calculation

[...]

          k = 0.3478 0.6025-0.3182 (  4290 PWs)   bands (ev):

[...]

          k =-0.1739-0.5020 0.2121 (  4282 PWs)   bands (ev):

  -117.6863-117.6858 -71.8416 -71.8415 -71.8411 -71.8411 -71.8404 -71.8400
    -4.8457  -4.6811   1.0023   1.0552   1.1069   1.1862   1.2272   1.2492
     1.4085   1.4197   1.5328   1.6659   2.5871   3.0208   4.6066   5.2122
     5.3968   6.0333

     highest occupied level (ev):     7.2134

!    total energy              =    -841.79945492 Ry
     estimated scf accuracy    <          2.2E-11 Ry

     The total energy is the sum of the following terms:
     one-electron contribution =    -681.78602923 Ry
     hartree contribution      =     347.69188165 Ry
     xc contribution           =     -81.97900137 Ry
     ewald contribution        =    -425.72630598 Ry

     convergence has been achieved in  11 iterations

     Forces acting on atoms (cartesian axes, Ry/au):

     atom    1 type  1   force =    -0.00000000   -0.00000000    0.00011083
     atom    2 type  2   force =     0.00000000    0.00000000   -0.00021887
     atom    3 type  1   force =     0.00000000    0.00000000    0.00015123
     atom    4 type  2   force =    -0.00000000   -0.00000000   -0.00004319
     The non-local contrib.  to forces
     atom    1 type  1   force =     0.00000000    0.00000000    0.00512644
     atom    2 type  2   force =     0.00000000    0.00000000    0.00307668
     atom    3 type  1   force =     0.00000000    0.00000000    0.00478573
     atom    4 type  2   force =     0.00000000    0.00000000    0.00343376
     The ionic contribution  to forces
     atom    1 type  1   force =     0.00000000   -0.00000001    0.25676030
     atom    2 type  2   force =     0.00000000   -0.00000001   -0.25938611
     atom    3 type  1   force =    -0.00000000    0.00000001    0.26150212
     atom    4 type  2   force =    -0.00000000    0.00000001   -0.25887632
     The local contribution  to forces
     atom    1 type  1   force =     0.00000000   -0.00000000   -0.26170492
     atom    2 type  2   force =     0.00000000   -0.00000000    0.25617562
     atom    3 type  1   force =    -0.00000000    0.00000048   -0.26604785
     atom    4 type  2   force =    -0.00000000   -0.00000001    0.25547535
     The core correction contribution to forces
     atom    1 type  1   force =     0.00000000    0.00000000    0.00000000
     atom    2 type  2   force =     0.00000000    0.00000000    0.00000000
     atom    3 type  1   force =     0.00000000    0.00000000    0.00000000
     atom    4 type  2   force =     0.00000000    0.00000000    0.00000000
     The Hubbard contrib.    to forces
     atom    1 type  1   force =     0.00000000    0.00000000    0.00000000
     atom    2 type  2   force =     0.00000000    0.00000000    0.00000000
     atom    3 type  1   force =     0.00000000    0.00000000    0.00000000
     atom    4 type  2   force =     0.00000000    0.00000000    0.00000000
     The SCF correction term to forces
     atom    1 type  1   force =     0.00000000   -0.00000000    0.00000945
     atom    2 type  2   force =    -0.00000000   -0.00000000   -0.00000463
     atom    3 type  1   force =     0.00000000    0.00000000   -0.00000833
     atom    4 type  2   force =    -0.00000000    0.00000000    0.00000445

     Total force =     0.000291     Total SCF correction =     0.000014

     Computing stress (Cartesian axis) and pressure

          total   stress  (Ry/bohr**3)                   (kbar)     P=      -28.74
  -0.00019499   0.00000000  -0.00000000          -28.68        0.00       -0.00
   0.00000000  -0.00019499   0.00000000            0.00      -28.68        0.00
  -0.00000000  -0.00000000  -0.00019618           -0.00       -0.00      -28.86

     Writing all to output data dir /home/paolo/project_labqsm/ZnS_wurtzite/SCRATCH/zns_w.save/

     General routines

   This run was terminated on:  11:42:56  10Jun2024

   JOB DONE.