     Program PWSCF v.7.2 starts on 30May2024 at 17:41:38

     Waiting for input...
     Reading input from standard input

     Current dimensions of program PWSCF are:
     Max number of different atomic species (ntypx) = 10
     Max number of k-points (npk) =  40000
     Max angular momentum in pseudopotentials (lmaxx) =  4

     Using Slab Decomposition

     bravais-lattice index     =            2
     lattice parameter (alat)  =      10.7544  a.u.
     unit-cell volume          =     310.9584 (a.u.)^3
     number of atoms/cell      =            2
     number of atomic types    =            2
     number of electrons       =         8.00
     number of Kohn-Sham states=            4
     kinetic-energy cutoff     =      60.0000  Ry
     charge density cutoff     =     240.0000  Ry
     scf convergence threshold =      1.0E-08
     mixing beta               =       0.7000
     number of iterations used =            8  plain     mixing
     energy convergence thresh.=      1.0E-05
     force convergence thresh. =      1.0E-04
     press convergence thresh. =      5.0E-01
     Exchange-correlation= SLA-PZ-NOGX-NOGC
                           (   1   1   0   0   0   0   0)
     nstep                     =           50

     celldm(1)=  10.754431  celldm(2)=   0.000000  celldm(3)=   0.000000
     celldm(4)=   0.000000  celldm(5)=   0.000000  celldm(6)=   0.000000

     crystal axes: (cart. coord. in units of alat)
               a(1) = (  -0.500000   0.000000   0.500000 )
               a(2) = (   0.000000   0.500000   0.500000 )
               a(3) = (  -0.500000   0.500000   0.000000 )

     reciprocal axes: (cart. coord. in units 2 pi/alat)
               b(1) = ( -1.000000 -1.000000  1.000000 )
               b(2) = (  1.000000  1.000000  1.000000 )
               b(3) = ( -1.000000  1.000000 -1.000000 )

     PseudoPot. # 1 for Zn read from file:
     /home/paolo/project_labqsm/pseudopotentials/Zn.pz-hgh.UPF
     MD5 check sum: c1979979258da2eeca1fc2dcb474678d
     Pseudo is Norm-conserving, Zval =  2.0
     Generated in analytical, separable form
     Using radial grid of 1201 points,  6 beta functions with:
                l(1) =   0
                l(2) =   0
                l(3) =   0
                l(4) =   1
                l(5) =   1
                l(6) =   2

     PseudoPot. # 2 for S  read from file:
     /home/paolo/project_labqsm/pseudopotentials/S.pz-hgh.UPF
     MD5 check sum: a0679cb0a74c01c481c24d5fd31ffa9b
     Pseudo is Norm-conserving, Zval =  6.0
     Generated in analytical, separable form
     Using radial grid of 1151 points,  3 beta functions with:
                l(1) =   0
                l(2) =   0
                l(3) =   1

     atomic species   valence    mass     pseudopotential
        Zn             2.00    65.38000     Zn( 1.00)
        S              6.00    32.06000     S ( 1.00)

     24 Sym. Ops. (no inversion) found

   Cartesian axes

     site n.     atom                  positions (alat units)
         1           Zn  tau(   1) = (   0.0000000   0.0000000   0.0000000  )
         2           S   tau(   2) = (   0.2500000   0.2500000   0.2500000  )

     number of k points=    29
                       cart. coord. in units 2pi/alat
        k(    1) = (   0.0000000   0.0000000   0.0000000), wk =   0.0039062
        k(    2) = (  -0.1250000   0.1250000  -0.1250000), wk =   0.0312500
        k(    3) = (  -0.2500000   0.2500000  -0.2500000), wk =   0.0312500
        k(    4) = (  -0.3750000   0.3750000  -0.3750000), wk =   0.0312500
        k(    5) = (   0.5000000  -0.5000000   0.5000000), wk =   0.0156250
        k(    6) = (   0.0000000   0.2500000   0.0000000), wk =   0.0234375
        k(    7) = (  -0.1250000   0.3750000  -0.1250000), wk =   0.0937500
        k(    8) = (  -0.2500000   0.5000000  -0.2500000), wk =   0.0937500
        k(    9) = (   0.6250000  -0.3750000   0.6250000), wk =   0.0937500
        k(   10) = (   0.5000000  -0.2500000   0.5000000), wk =   0.0937500
        k(   11) = (   0.3750000  -0.1250000   0.3750000), wk =   0.0937500
        k(   12) = (   0.2500000   0.0000000   0.2500000), wk =   0.0468750
        k(   13) = (   0.0000000   0.5000000   0.0000000), wk =   0.0234375
        k(   14) = (  -0.1250000   0.6250000  -0.1250000), wk =   0.0937500
        k(   15) = (   0.7500000  -0.2500000   0.7500000), wk =   0.0937500
        k(   16) = (   0.6250000  -0.1250000   0.6250000), wk =   0.0937500
        k(   17) = (   0.5000000   0.0000000   0.5000000), wk =   0.0468750
        k(   18) = (   0.0000000   0.7500000   0.0000000), wk =   0.0234375
        k(   19) = (   0.8750000  -0.1250000   0.8750000), wk =   0.0937500
        k(   20) = (   0.7500000   0.0000000   0.7500000), wk =   0.0468750
        k(   21) = (   0.0000000  -1.0000000   0.0000000), wk =   0.0117188
        k(   22) = (  -0.2500000   0.5000000   0.0000000), wk =   0.0937500
        k(   23) = (   0.6250000  -0.3750000   0.8750000), wk =   0.1875000
        k(   24) = (   0.5000000  -0.2500000   0.7500000), wk =   0.0937500
        k(   25) = (   0.7500000  -0.2500000   1.0000000), wk =   0.0937500
        k(   26) = (   0.6250000  -0.1250000   0.8750000), wk =   0.1875000
        k(   27) = (   0.5000000   0.0000000   0.7500000), wk =   0.0937500
        k(   28) = (  -0.2500000  -1.0000000   0.0000000), wk =   0.0468750
        k(   29) = (  -0.5000000  -1.0000000   0.0000000), wk =   0.0234375

     Initial potential from superposition of free atoms

     starting charge       6.0000, renormalised to       8.0000
     Starting wfcs are   18 randomized atomic wfcs

     Self-consistent Calculation

     iteration #  1     ecut=    60.00 Ry     beta= 0.70
     Davidson diagonalization with overlap
     ethr =  1.00E-02,  avg # of iterations =  1.9

     total energy              =     -22.53472019 Ry
     estimated scf accuracy    <       0.82392765 Ry

[...]

     negative rho (up, down):  9.439E-08 0.000E+00

[...]

     End of self-consistent calculation

          k = 0.0000 0.0000 0.0000 (  2421 PWs)   bands (ev):

   -10.5391   1.1809   1.1809   1.1809

          k =-0.1250 0.1250-0.1250 (  2457 PWs)   bands (ev):

[...]

     highest occupied level (ev):     1.1809

!    total energy              =     -22.83816952 Ry
     estimated scf accuracy    <          3.3E-09 Ry

     The total energy is the sum of the following terms:
     one-electron contribution =      -2.53040002 Ry
     hartree contribution      =       3.87144116 Ry
     xc contribution           =      -5.33665601 Ry
     ewald contribution        =     -18.84255465 Ry

     convergence has been achieved in  11 iterations

     Forces acting on atoms (cartesian axes, Ry/au):

     atom    1 type  1   force =     0.00000000   -0.00000000    0.00000000
     atom    2 type  2   force =     0.00000000    0.00000000    0.00000000
     The non-local contrib.  to forces
     atom    1 type  1   force =     0.00000000    0.00000000   -0.00000000
     atom    2 type  2   force =    -0.00000000   -0.00000000    0.00000000
     The ionic contribution  to forces
     atom    1 type  1   force =    -0.00000000    0.00000000   -0.00000000
     atom    2 type  2   force =    -0.00000000    0.00000000    0.00000000
     The local contribution  to forces
     atom    1 type  1   force =    -0.00000000   -0.00000000    0.00000000
     atom    2 type  2   force =    -0.00000000   -0.00000000   -0.00000000
     The core correction contribution to forces
     atom    1 type  1   force =     0.00000000    0.00000000    0.00000000
     atom    2 type  2   force =     0.00000000    0.00000000    0.00000000
     The Hubbard contrib.    to forces
     atom    1 type  1   force =     0.00000000    0.00000000    0.00000000
     atom    2 type  2   force =     0.00000000    0.00000000    0.00000000
     The SCF correction term to forces
     atom    1 type  1   force =    -0.00000000    0.00000000    0.00000000
     atom    2 type  2   force =     0.00000000    0.00000000   -0.00000000

     Total force =     0.000000     Total SCF correction =     0.000000

     Computing stress (Cartesian axis) and pressure

          total   stress  (Ry/bohr**3)                   (kbar)     P=     -188.59
  -0.00128201  -0.00000000   0.00000000         -188.59       -0.00        0.00
   0.00000000  -0.00128201   0.00000000            0.00     -188.59        0.00
  -0.00000000   0.00000000  -0.00128201           -0.00        0.00     -188.59

     BFGS Geometry Optimization
     Energy error            =      0.0E+00 Ry
     Gradient error          =      7.7E-34 Ry/Bohr
     Cell gradient error     =      1.9E+02 kbar

     number of scf cycles    =   1
     number of bfgs steps    =   0

     enthalpy           new  =     -22.8381695158 Ry

     new trust radius        =       0.1130351007 bohr
     new conv_thr            =       0.0000000100 Ry

     new unit-cell volume =    282.00748 a.u.^3 (    41.78920 Ang^3 )
     density =      3.87188 g/cm^3

CELL_PARAMETERS (alat= 10.75443060)
  -0.483974847   0.000000000   0.483974847
   0.000000000   0.483974847   0.483974847
  -0.483974847   0.483974847   0.000000000

ATOMIC_POSITIONS (alat)
Zn            0.0000000000       -0.0000000000        0.0000000000
S             0.2419874233        0.2419874233        0.2419874233

     Writing config-only to output data dir /home/paolo/project_labqsm/ZnS_zincblende/SCRATCH/zns.save/
     NEW-OLD atomic charge density approx. for the potential
     extrapolated charge    7.38404, renormalised to    8.00000

[...]

     Energy error            =      3.6E-02 Ry
     Gradient error          =      4.2E-32 Ry/Bohr
     Cell gradient error     =      1.8E+02 kbar

[...]

     enthalpy           old  =     -22.8381695158 Ry
     enthalpy           new  =     -22.8742951392 Ry

     CASE: enthalpy          _new < enthalpy          _old

     WARNING: bfgs curvature condition failed, Theta= 0.915
     new trust radius        =       0.1668134168 bohr
     new conv_thr            =            1.0E-10 Ry

[...]

     Writing config-only to output data dir /home/paolo/project_labqsm/ZnS_zincblende/SCRATCH/zns.save/
     NEW-OLD atomic charge density approx. for the potential

     negative rho (up, down):  2.575E-06 0.000E+00
     extrapolated charge    8.74447, renormalised to    8.00000

[...]

     negative rho (up, down):  1.373E-08 0.000E+00

[...]

     number of scf cycles    =   7
     number of bfgs steps    =   6

     enthalpy           old  =     -22.9294396670 Ry
     enthalpy           new  =     -22.9294536135 Ry

     CASE: enthalpy          _new < enthalpy          _old

     new trust radius        =       0.0001807925 bohr
     new conv_thr            =            1.0E-10 Ry

     new unit-cell volume =    211.10208 a.u.^3 (    31.28210 Ang^3 )
     density =      5.17238 g/cm^3

[...]

ATOMIC_POSITIONS (alat)
Zn            0.0000000000        0.0000000000       -0.0000000000
S             0.2197202504        0.2197202504        0.2197202504

     Writing config-only to output data dir /home/paolo/project_labqsm/ZnS_zincblende/SCRATCH/zns.save/
     NEW-OLD atomic charge density approx. for the potential
     extrapolated charge    8.00112, renormalised to    8.00000

[...]

     Threshold (ethr) on eigenvalues was too large:
     Diagonalizing with lowered threshold

     Davidson diagonalization with overlap
     ethr =  9.80E-10,  avg # of iterations =  2.0

[...]

     Energy error            =      2.6E-08 Ry
     Gradient error          =      1.0E-31 Ry/Bohr
     Cell gradient error     =      8.9E-03 kbar

     bfgs converged in   8 scf cycles and   7 bfgs steps
     (criteria: energy <  1.0E-05 Ry, force <  1.0E-04 Ry/Bohr, cell <  5.0E-01 kbar)

     End of BFGS Geometry Optimization

     Final enthalpy           =     -22.9294536397 Ry

     File /home/paolo/project_labqsm/ZnS_zincblende/SCRATCH/zns.bfgs deleted, as requested
Begin final coordinates
     new unit-cell volume =    211.10208 a.u.^3 (    31.28210 Ang^3 )
     density =      5.17238 g/cm^3

CELL_PARAMETERS (alat= 10.75443060)
  -0.439440501   0.000000000   0.439440501
   0.000000000   0.439440501   0.439440501
  -0.439440501   0.439440501   0.000000000

ATOMIC_POSITIONS (alat)
Zn            0.0000000000        0.0000000000       -0.0000000000
S             0.2197202504        0.2197202504        0.2197202504
End final coordinates

     Writing config-only to output data dir /home/paolo/project_labqsm/ZnS_zincblende/SCRATCH/zns.save/

     Final scf calculation at the relaxed structure.
     The G-vectors are recalculated for the final unit cell
     Results may differ from those at the preceding step.

     Using Slab Decomposition

     bravais-lattice index     =            2
     lattice parameter (alat)  =      10.7544  a.u.
     unit-cell volume          =     211.1021 (a.u.)^3
     number of atoms/cell      =            2
     number of atomic types    =            2
     number of electrons       =         8.00
     number of Kohn-Sham states=            4
     kinetic-energy cutoff     =      60.0000  Ry
     charge density cutoff     =     240.0000  Ry
     scf convergence threshold =      1.0E-10
     mixing beta               =       0.7000
     number of iterations used =            8  plain     mixing
     press convergence thresh. =      5.0E-01
     Exchange-correlation= SLA-PZ-NOGX-NOGC
                           (   1   1   0   0   0   0   0)

     celldm(1)=  10.754431  celldm(2)=   0.000000  celldm(3)=   0.000000
     celldm(4)=   0.000000  celldm(5)=   0.000000  celldm(6)=   0.000000

     crystal axes: (cart. coord. in units of alat)
               a(1) = (  -0.439441   0.000000   0.439441 )
               a(2) = (   0.000000   0.439441   0.439441 )
               a(3) = (  -0.439441   0.439441   0.000000 )

     reciprocal axes: (cart. coord. in units 2 pi/alat)
               b(1) = ( -1.137810 -1.137810  1.137810 )
               b(2) = (  1.137810  1.137810  1.137810 )
               b(3) = ( -1.137810  1.137810 -1.137810 )

     PseudoPot. # 1 for Zn read from file:
     /home/paolo/project_labqsm/pseudopotentials/Zn.pz-hgh.UPF
     MD5 check sum: c1979979258da2eeca1fc2dcb474678d
     Pseudo is Norm-conserving, Zval =  2.0
     Generated in analytical, separable form
     Using radial grid of 1201 points,  6 beta functions with:
                l(1) =   0
                l(2) =   0
                l(3) =   0
                l(4) =   1
                l(5) =   1
                l(6) =   2

     PseudoPot. # 2 for S  read from file:
     /home/paolo/project_labqsm/pseudopotentials/S.pz-hgh.UPF
     MD5 check sum: a0679cb0a74c01c481c24d5fd31ffa9b
     Pseudo is Norm-conserving, Zval =  6.0
     Generated in analytical, separable form
     Using radial grid of 1151 points,  3 beta functions with:
                l(1) =   0
                l(2) =   0
                l(3) =   1

     atomic species   valence    mass     pseudopotential
        Zn             2.00    65.38000     Zn( 1.00)
        S              6.00    32.06000     S ( 1.00)

     24 Sym. Ops. (no inversion) found

   Cartesian axes

     site n.     atom                  positions (alat units)
         1           Zn  tau(   1) = (   0.0000000   0.0000000  -0.0000000  )
         2           S   tau(   2) = (   0.2197203   0.2197203   0.2197203  )

     number of k points=    29
                       cart. coord. in units 2pi/alat
        k(    1) = (   0.0000000   0.0000000   0.0000000), wk =   0.0039062
        k(    2) = (  -0.1422263   0.1422263  -0.1422263), wk =   0.0312500
        k(    3) = (  -0.2844526   0.2844526  -0.2844526), wk =   0.0312500
        k(    4) = (  -0.4266789   0.4266789  -0.4266789), wk =   0.0312500
        k(    5) = (   0.5689052  -0.5689052   0.5689052), wk =   0.0156250
        k(    6) = (   0.0000000   0.2844526   0.0000000), wk =   0.0234375
        k(    7) = (  -0.1422263   0.4266789  -0.1422263), wk =   0.0937500
        k(    8) = (  -0.2844526   0.5689052  -0.2844526), wk =   0.0937500
        k(    9) = (   0.7111315  -0.4266789   0.7111315), wk =   0.0937500
        k(   10) = (   0.5689052  -0.2844526   0.5689052), wk =   0.0937500
        k(   11) = (   0.4266789  -0.1422263   0.4266789), wk =   0.0937500
        k(   12) = (   0.2844526  -0.0000000   0.2844526), wk =   0.0468750
        k(   13) = (   0.0000000   0.5689052   0.0000000), wk =   0.0234375
        k(   14) = (  -0.1422263   0.7111315  -0.1422263), wk =   0.0937500
        k(   15) = (   0.8533578  -0.2844526   0.8533578), wk =   0.0937500
        k(   16) = (   0.7111315  -0.1422263   0.7111315), wk =   0.0937500
        k(   17) = (   0.5689052  -0.0000000   0.5689052), wk =   0.0468750
        k(   18) = (   0.0000000   0.8533578   0.0000000), wk =   0.0234375
        k(   19) = (   0.9955842  -0.1422263   0.9955842), wk =   0.0937500
        k(   20) = (   0.8533578   0.0000000   0.8533578), wk =   0.0468750
        k(   21) = (   0.0000000  -1.1378105   0.0000000), wk =   0.0117188
        k(   22) = (  -0.2844526   0.5689052  -0.0000000), wk =   0.0937500
        k(   23) = (   0.7111315  -0.4266789   0.9955842), wk =   0.1875000
        k(   24) = (   0.5689052  -0.2844526   0.8533578), wk =   0.0937500
        k(   25) = (   0.8533578  -0.2844526   1.1378105), wk =   0.0937500
        k(   26) = (   0.7111315  -0.1422263   0.9955842), wk =   0.1875000
        k(   27) = (   0.5689052  -0.0000000   0.8533578), wk =   0.0937500
        k(   28) = (  -0.2844526  -1.1378105   0.0000000), wk =   0.0468750
        k(   29) = (  -0.5689052  -1.1378105   0.0000000), wk =   0.0234375

     Initial potential from superposition of free atoms

     starting charge       6.0000, renormalised to       8.0000
     Starting wfcs are   18 randomized atomic wfcs

     Self-consistent Calculation

[...]

     total energy              =     -22.92850032 Ry
     estimated scf accuracy    <          1.2E-10 Ry

     iteration # 11     ecut=    60.00 Ry     beta= 0.70
     Davidson diagonalization with overlap
     ethr =  1.53E-12,  avg # of iterations =  2.1

     End of self-consistent calculation

[...]

          k = 0.5689-0.0000 0.8534 (  1651 PWs)   bands (ev):

[...]

          k =-0.5689-1.1378 0.0000 (  1648 PWs)   bands (ev):

    -6.8228  -0.4365   1.0810   1.4909

     highest occupied level (ev):     4.7848

!    total energy              =     -22.92850032 Ry
     estimated scf accuracy    <          1.6E-12 Ry

     The total energy is the sum of the following terms:
     one-electron contribution =       1.24383616 Ry
     hartree contribution      =       2.89744329 Ry
     xc contribution           =      -5.63052393 Ry
     ewald contribution        =     -21.43925584 Ry

     convergence has been achieved in  11 iterations

     Forces acting on atoms (cartesian axes, Ry/au):

     atom    1 type  1   force =     0.00000000    0.00000000    0.00000000
     atom    2 type  2   force =    -0.00000000   -0.00000000   -0.00000000
     The non-local contrib.  to forces
     atom    1 type  1   force =    -0.00000000    0.00000000   -0.00000000
     atom    2 type  2   force =    -0.00000000    0.00000000   -0.00000000
     The ionic contribution  to forces
     atom    1 type  1   force =    -0.00000000    0.00000000    0.00000000
     atom    2 type  2   force =    -0.00000000   -0.00000000   -0.00000000
     The local contribution  to forces
     atom    1 type  1   force =    -0.00000000   -0.00000000    0.00000000
     atom    2 type  2   force =    -0.00000000   -0.00000000   -0.00000000
     The core correction contribution to forces
     atom    1 type  1   force =     0.00000000    0.00000000    0.00000000
     atom    2 type  2   force =     0.00000000    0.00000000    0.00000000
     The Hubbard contrib.    to forces
     atom    1 type  1   force =     0.00000000    0.00000000    0.00000000
     atom    2 type  2   force =     0.00000000    0.00000000    0.00000000
     The SCF correction term to forces
     atom    1 type  1   force =    -0.00000000   -0.00000000    0.00000000
     atom    2 type  2   force =    -0.00000000   -0.00000000   -0.00000000

     Total force =     0.000000     Total SCF correction =     0.000000

     Computing stress (Cartesian axis) and pressure

          total   stress  (Ry/bohr**3)                   (kbar)     P=       -1.87
  -0.00001272  -0.00000000  -0.00000000           -1.87       -0.00       -0.00
  -0.00000000  -0.00001272   0.00000000           -0.00       -1.87        0.00
  -0.00000000   0.00000000  -0.00001272           -0.00        0.00       -1.87

     Writing all to output data dir /home/paolo/project_labqsm/ZnS_zincblende/SCRATCH/zns.save/

     General routines

   This run was terminated on:  17:43: 3  30May2024

   JOB DONE.