     Program PWSCF v.7.2 starts on  8Jun2024 at 10:44:32

     Waiting for input...
     Reading input from standard input

     Current dimensions of program PWSCF are:
     Max number of different atomic species (ntypx) = 10
     Max number of k-points (npk) =  40000
     Max angular momentum in pseudopotentials (lmaxx) =  4

     Using Slab Decomposition

     bravais-lattice index     =            2
     lattice parameter (alat)  =      10.7544  a.u.
     unit-cell volume          =     310.9584 (a.u.)^3
     number of atoms/cell      =            2
     number of atomic types    =            2
     number of electrons       =        26.00
     number of Kohn-Sham states=           13
     kinetic-energy cutoff     =      60.0000  Ry
     charge density cutoff     =     240.0000  Ry
     scf convergence threshold =      1.0E-08
     mixing beta               =       0.7000
     number of iterations used =            8  plain     mixing
     energy convergence thresh.=      1.0E-05
     force convergence thresh. =      1.0E-04
     press convergence thresh. =      5.0E-01
     Exchange-correlation= PBE
                           (   1   4   3   4   0   0   0)
     nstep                     =           50

     celldm(1)=  10.754431  celldm(2)=   0.000000  celldm(3)=   0.000000
     celldm(4)=   0.000000  celldm(5)=   0.000000  celldm(6)=   0.000000

     crystal axes: (cart. coord. in units of alat)
               a(1) = (  -0.500000   0.000000   0.500000 )
               a(2) = (   0.000000   0.500000   0.500000 )
               a(3) = (  -0.500000   0.500000   0.000000 )

     reciprocal axes: (cart. coord. in units 2 pi/alat)
               b(1) = ( -1.000000 -1.000000  1.000000 )
               b(2) = (  1.000000  1.000000  1.000000 )
               b(3) = ( -1.000000  1.000000 -1.000000 )

     PseudoPot. # 1 for Zn read from file:
     /home/paolo/project_labqsm/pseudopotentials/Zn_ONCV_PBE-1.2.upf
     MD5 check sum: 732f41c0cd6489a4b50a33b4ec99a2d3
     Pseudo is Norm-conserving, Zval = 20.0
     Generated using ONCVPSP code by D. R. Hamann
     Using radial grid of  602 points,  6 beta functions with:
                l(1) =   0
                l(2) =   0
                l(3) =   1
                l(4) =   1
                l(5) =   2
                l(6) =   2

     PseudoPot. # 2 for S  read from file:
     /home/paolo/project_labqsm/pseudopotentials/S_ONCV_PBE-1.2.upf
     MD5 check sum: f9d020296ee6110346977bfd66d424f6
     Pseudo is Norm-conserving, Zval =  6.0
     Generated using ONCVPSP code by D. R. Hamann
     Using radial grid of  602 points,  4 beta functions with:
                l(1) =   0
                l(2) =   0
                l(3) =   1
                l(4) =   1

     atomic species   valence    mass     pseudopotential
        Zn            20.00    65.38000     Zn( 1.00)
        S              6.00    32.06000     S ( 1.00)

     24 Sym. Ops. (no inversion) found

   Cartesian axes

     site n.     atom                  positions (alat units)
         1           Zn  tau(   1) = (   0.0000000   0.0000000   0.0000000  )
         2           S   tau(   2) = (   0.2500000   0.2500000   0.2500000  )

     number of k points=    29
                       cart. coord. in units 2pi/alat
        k(    1) = (   0.0000000   0.0000000   0.0000000), wk =   0.0039062
        k(    2) = (  -0.1250000   0.1250000  -0.1250000), wk =   0.0312500
        k(    3) = (  -0.2500000   0.2500000  -0.2500000), wk =   0.0312500
        k(    4) = (  -0.3750000   0.3750000  -0.3750000), wk =   0.0312500
        k(    5) = (   0.5000000  -0.5000000   0.5000000), wk =   0.0156250
        k(    6) = (   0.0000000   0.2500000   0.0000000), wk =   0.0234375
        k(    7) = (  -0.1250000   0.3750000  -0.1250000), wk =   0.0937500
        k(    8) = (  -0.2500000   0.5000000  -0.2500000), wk =   0.0937500
        k(    9) = (   0.6250000  -0.3750000   0.6250000), wk =   0.0937500
        k(   10) = (   0.5000000  -0.2500000   0.5000000), wk =   0.0937500
        k(   11) = (   0.3750000  -0.1250000   0.3750000), wk =   0.0937500
        k(   12) = (   0.2500000   0.0000000   0.2500000), wk =   0.0468750
        k(   13) = (   0.0000000   0.5000000   0.0000000), wk =   0.0234375
        k(   14) = (  -0.1250000   0.6250000  -0.1250000), wk =   0.0937500
        k(   15) = (   0.7500000  -0.2500000   0.7500000), wk =   0.0937500
        k(   16) = (   0.6250000  -0.1250000   0.6250000), wk =   0.0937500
        k(   17) = (   0.5000000   0.0000000   0.5000000), wk =   0.0468750
        k(   18) = (   0.0000000   0.7500000   0.0000000), wk =   0.0234375
        k(   19) = (   0.8750000  -0.1250000   0.8750000), wk =   0.0937500
        k(   20) = (   0.7500000   0.0000000   0.7500000), wk =   0.0468750
        k(   21) = (   0.0000000  -1.0000000   0.0000000), wk =   0.0117188
        k(   22) = (  -0.2500000   0.5000000   0.0000000), wk =   0.0937500
        k(   23) = (   0.6250000  -0.3750000   0.8750000), wk =   0.1875000
        k(   24) = (   0.5000000  -0.2500000   0.7500000), wk =   0.0937500
        k(   25) = (   0.7500000  -0.2500000   1.0000000), wk =   0.0937500
        k(   26) = (   0.6250000  -0.1250000   0.8750000), wk =   0.1875000
        k(   27) = (   0.5000000   0.0000000   0.7500000), wk =   0.0937500
        k(   28) = (  -0.2500000  -1.0000000   0.0000000), wk =   0.0468750
        k(   29) = (  -0.5000000  -1.0000000   0.0000000), wk =   0.0234375

     Initial potential from superposition of free atoms

     starting charge      25.9670, renormalised to      26.0000
     Starting wfcs are random

     Self-consistent Calculation

     iteration #  1     ecut=    60.00 Ry     beta= 0.70
     Davidson diagonalization with overlap
     ethr =  1.00E-02,  avg # of iterations = 13.2

     Threshold (ethr) on eigenvalues was too large:
     Diagonalizing with lowered threshold

     Davidson diagonalization with overlap
     ethr =  7.29E-04,  avg # of iterations =  2.4

     total energy              =    -420.83355376 Ry
     estimated scf accuracy    <       0.12758042 Ry

[...]

     End of self-consistent calculation

          k = 0.0000 0.0000 0.0000 (  2421 PWs)   bands (ev):

  -119.2673 -73.4148 -73.4148 -73.4148  -6.7601  -0.4655  -0.4655  -0.4655
    -0.1382  -0.1382   5.4176   5.4176   5.4176

          k =-0.1250 0.1250-0.1250 (  2457 PWs)   bands (ev):

[...]

     highest occupied level (ev):     5.4176

!    total energy              =    -420.89027586 Ry
     estimated scf accuracy    <          1.2E-09 Ry

     The total energy is the sum of the following terms:
     one-electron contribution =    -356.30086282 Ry
     hartree contribution      =     180.07378792 Ry
     xc contribution           =     -40.89002329 Ry
     ewald contribution        =    -203.77317767 Ry

     convergence has been achieved in   9 iterations

     Forces acting on atoms (cartesian axes, Ry/au):

     atom    1 type  1   force =     0.00000000   -0.00000000    0.00000000
     atom    2 type  2   force =     0.00000000    0.00000000    0.00000000
     The non-local contrib.  to forces
     atom    1 type  1   force =     0.00000000    0.00000000    0.00000000
     atom    2 type  2   force =     0.00000000    0.00000000   -0.00000000
     The ionic contribution  to forces
     atom    1 type  1   force =    -0.00000000    0.00000000   -0.00000000
     atom    2 type  2   force =     0.00000000    0.00000000    0.00000000
     The local contribution  to forces
     atom    1 type  1   force =    -0.00000000    0.00000000    0.00000000
     atom    2 type  2   force =    -0.00000000   -0.00000000   -0.00000000
     The core correction contribution to forces
     atom    1 type  1   force =     0.00000000    0.00000000    0.00000000
     atom    2 type  2   force =     0.00000000    0.00000000    0.00000000
     The Hubbard contrib.    to forces
     atom    1 type  1   force =     0.00000000    0.00000000    0.00000000
     atom    2 type  2   force =     0.00000000    0.00000000    0.00000000
     The SCF correction term to forces
     atom    1 type  1   force =    -0.00000000    0.00000000    0.00000000
     atom    2 type  2   force =     0.00000000    0.00000000   -0.00000000

     Total force =     0.000000     Total SCF correction =     0.000000

     Computing stress (Cartesian axis) and pressure

          total   stress  (Ry/bohr**3)                   (kbar)     P=      -95.15
  -0.00064685   0.00000000   0.00000000          -95.15        0.00        0.00
   0.00000000  -0.00064685  -0.00000000            0.00      -95.15       -0.00
   0.00000000  -0.00000000  -0.00064685            0.00       -0.00      -95.15

     BFGS Geometry Optimization
     Energy error            =      0.0E+00 Ry
     Gradient error          =      6.6E-32 Ry/Bohr
     Cell gradient error     =      9.5E+01 kbar

     number of scf cycles    =   1
     number of bfgs steps    =   0

     enthalpy           new  =    -420.8902758585 Ry

     new trust radius        =       0.0570327051 bohr
     new conv_thr            =       0.0000000100 Ry

     new unit-cell volume =    296.11529 a.u.^3 (    43.87976 Ang^3 )
     density =      3.68742 g/cm^3

CELL_PARAMETERS (alat= 10.75443060)
  -0.491914389  -0.000000000   0.491914389
   0.000000000   0.491914389   0.491914389
  -0.491914389   0.491914389  -0.000000000

ATOMIC_POSITIONS (alat)
Zn            0.0000000000       -0.0000000000        0.0000000000
S             0.2459571945        0.2459571945        0.2459571945

     Writing config-only to output data dir /home/paolo/project_labqsm/ZnS_zincblende/SCRATCH/zns.save/
     NEW-OLD atomic charge density approx. for the potential
     extrapolated charge   24.69838, renormalised to   26.00000

[...]

     Energy error            =      7.8E-03 Ry
     Gradient error          =      5.8E-32 Ry/Bohr
     Cell gradient error     =      6.0E+01 kbar

[...]

     enthalpy           old  =    -420.8902758585 Ry
     enthalpy           new  =    -420.8980955706 Ry

     CASE: enthalpy          _new < enthalpy          _old

[...]

     number of scf cycles    =   4
     number of bfgs steps    =   3

     enthalpy           old  =    -420.9030799632 Ry
     enthalpy           new  =    -420.9031514223 Ry

     CASE: enthalpy          _new < enthalpy          _old

     new trust radius        =       0.0002020469 bohr
     new conv_thr            =            1.0E-10 Ry

     new unit-cell volume =    271.96777 a.u.^3 (    40.30147 Ang^3 )
     density =      4.01481 g/cm^3

[...]

ATOMIC_POSITIONS (alat)
Zn           -0.0000000000        0.0000000000        0.0000000000
S             0.2390810010        0.2390810010        0.2390810010

     Writing config-only to output data dir /home/paolo/project_labqsm/ZnS_zincblende/SCRATCH/zns.save/
     NEW-OLD atomic charge density approx. for the potential
     extrapolated charge   26.00477, renormalised to   26.00000

[...]

     Threshold (ethr) on eigenvalues was too large:
     Diagonalizing with lowered threshold

     Davidson diagonalization with overlap
     ethr =  4.23E-08,  avg # of iterations =  1.3

[...]

     Energy error            =      2.8E-08 Ry
     Gradient error          =      1.7E-31 Ry/Bohr
     Cell gradient error     =      2.4E-02 kbar

     bfgs converged in   5 scf cycles and   4 bfgs steps
     (criteria: energy <  1.0E-05 Ry, force <  1.0E-04 Ry/Bohr, cell <  5.0E-01 kbar)

     End of BFGS Geometry Optimization

     Final enthalpy           =    -420.9031514507 Ry

     File /home/paolo/project_labqsm/ZnS_zincblende/SCRATCH/zns.bfgs deleted, as requested
Begin final coordinates
     new unit-cell volume =    271.96777 a.u.^3 (    40.30147 Ang^3 )
     density =      4.01481 g/cm^3

CELL_PARAMETERS (alat= 10.75443060)
  -0.478162002  -0.000000000   0.478162002
   0.000000000   0.478162002   0.478162002
  -0.478162002   0.478162002  -0.000000000

ATOMIC_POSITIONS (alat)
Zn           -0.0000000000        0.0000000000        0.0000000000
S             0.2390810010        0.2390810010        0.2390810010
End final coordinates

     Writing config-only to output data dir /home/paolo/project_labqsm/ZnS_zincblende/SCRATCH/zns.save/

     Final scf calculation at the relaxed structure.
     The G-vectors are recalculated for the final unit cell
     Results may differ from those at the preceding step.

     Using Slab Decomposition

     bravais-lattice index     =            2
     lattice parameter (alat)  =      10.7544  a.u.
     unit-cell volume          =     271.9678 (a.u.)^3
     number of atoms/cell      =            2
     number of atomic types    =            2
     number of electrons       =        26.00
     number of Kohn-Sham states=           13
     kinetic-energy cutoff     =      60.0000  Ry
     charge density cutoff     =     240.0000  Ry
     scf convergence threshold =      1.0E-10
     mixing beta               =       0.7000
     number of iterations used =            8  plain     mixing
     press convergence thresh. =      5.0E-01
     Exchange-correlation= PBE
                           (   1   4   3   4   0   0   0)

     celldm(1)=  10.754431  celldm(2)=   0.000000  celldm(3)=   0.000000
     celldm(4)=   0.000000  celldm(5)=   0.000000  celldm(6)=   0.000000

     crystal axes: (cart. coord. in units of alat)
               a(1) = (  -0.478162  -0.000000   0.478162 )
               a(2) = (   0.000000   0.478162   0.478162 )
               a(3) = (  -0.478162   0.478162  -0.000000 )

     reciprocal axes: (cart. coord. in units 2 pi/alat)
               b(1) = ( -1.045671 -1.045671  1.045671 )
               b(2) = (  1.045671  1.045671  1.045671 )
               b(3) = ( -1.045671  1.045671 -1.045671 )

     PseudoPot. # 1 for Zn read from file:
     /home/paolo/project_labqsm/pseudopotentials/Zn_ONCV_PBE-1.2.upf
     MD5 check sum: 732f41c0cd6489a4b50a33b4ec99a2d3
     Pseudo is Norm-conserving, Zval = 20.0
     Generated using ONCVPSP code by D. R. Hamann
     Using radial grid of  602 points,  6 beta functions with:
                l(1) =   0
                l(2) =   0
                l(3) =   1
                l(4) =   1
                l(5) =   2
                l(6) =   2

     PseudoPot. # 2 for S  read from file:
     /home/paolo/project_labqsm/pseudopotentials/S_ONCV_PBE-1.2.upf
     MD5 check sum: f9d020296ee6110346977bfd66d424f6
     Pseudo is Norm-conserving, Zval =  6.0
     Generated using ONCVPSP code by D. R. Hamann
     Using radial grid of  602 points,  4 beta functions with:
                l(1) =   0
                l(2) =   0
                l(3) =   1
                l(4) =   1

     atomic species   valence    mass     pseudopotential
        Zn            20.00    65.38000     Zn( 1.00)
        S              6.00    32.06000     S ( 1.00)

     24 Sym. Ops. (no inversion) found

   Cartesian axes

     site n.     atom                  positions (alat units)
         1           Zn  tau(   1) = (  -0.0000000   0.0000000   0.0000000  )
         2           S   tau(   2) = (   0.2390810   0.2390810   0.2390810  )

     number of k points=    29
                       cart. coord. in units 2pi/alat
        k(    1) = (   0.0000000   0.0000000   0.0000000), wk =   0.0039062
        k(    2) = (  -0.1307088   0.1307088  -0.1307088), wk =   0.0312500
        k(    3) = (  -0.2614177   0.2614177  -0.2614177), wk =   0.0312500
        k(    4) = (  -0.3921265   0.3921265  -0.3921265), wk =   0.0312500
        k(    5) = (   0.5228354  -0.5228354   0.5228354), wk =   0.0156250
        k(    6) = (   0.0000000   0.2614177   0.0000000), wk =   0.0234375
        k(    7) = (  -0.1307088   0.3921265  -0.1307088), wk =   0.0937500
        k(    8) = (  -0.2614177   0.5228354  -0.2614177), wk =   0.0937500
        k(    9) = (   0.6535442  -0.3921265   0.6535442), wk =   0.0937500
        k(   10) = (   0.5228354  -0.2614177   0.5228354), wk =   0.0937500
        k(   11) = (   0.3921265  -0.1307088   0.3921265), wk =   0.0937500
        k(   12) = (   0.2614177   0.0000000   0.2614177), wk =   0.0468750
        k(   13) = (   0.0000000   0.5228354   0.0000000), wk =   0.0234375
        k(   14) = (  -0.1307088   0.6535442  -0.1307088), wk =   0.0937500
        k(   15) = (   0.7842530  -0.2614177   0.7842530), wk =   0.0937500
        k(   16) = (   0.6535442  -0.1307088   0.6535442), wk =   0.0937500
        k(   17) = (   0.5228354   0.0000000   0.5228354), wk =   0.0468750
        k(   18) = (   0.0000000   0.7842530   0.0000000), wk =   0.0234375
        k(   19) = (   0.9149619  -0.1307088   0.9149619), wk =   0.0937500
        k(   20) = (   0.7842530   0.0000000   0.7842530), wk =   0.0468750
        k(   21) = (   0.0000000  -1.0456707   0.0000000), wk =   0.0117188
        k(   22) = (  -0.2614177   0.5228354  -0.0000000), wk =   0.0937500
        k(   23) = (   0.6535442  -0.3921265   0.9149619), wk =   0.1875000
        k(   24) = (   0.5228354  -0.2614177   0.7842530), wk =   0.0937500
        k(   25) = (   0.7842530  -0.2614177   1.0456707), wk =   0.0937500
        k(   26) = (   0.6535442  -0.1307088   0.9149619), wk =   0.1875000
        k(   27) = (   0.5228354   0.0000000   0.7842530), wk =   0.0937500
        k(   28) = (  -0.2614177  -1.0456707   0.0000000), wk =   0.0468750
        k(   29) = (  -0.5228354  -1.0456707   0.0000000), wk =   0.0234375

     Initial potential from superposition of free atoms

     starting charge      25.9670, renormalised to      26.0000
     Starting wfcs are random

     Self-consistent Calculation

[...]

     total energy              =    -420.90024002 Ry
     estimated scf accuracy    <       0.00000002 Ry

     iteration #  9     ecut=    60.00 Ry     beta= 0.70
     Davidson diagonalization with overlap
     ethr =  6.50E-11,  avg # of iterations =  2.0

     End of self-consistent calculation

[...]

          k = 0.5228 0.0000 0.7843 (  2144 PWs)   bands (ev):

[...]

          k =-0.5228-1.0457 0.0000 (  2148 PWs)   bands (ev):

  -117.6809 -71.8359 -71.8359 -71.8358  -4.5985   1.0701   1.2057   1.3587
     1.3743   1.7886   2.7197   4.5615   4.5712

     highest occupied level (ev):     7.2018

!    total energy              =    -420.90024002 Ry
     estimated scf accuracy    <          4.4E-11 Ry

     The total energy is the sum of the following terms:
     one-electron contribution =    -340.47091210 Ry
     hartree contribution      =     173.63808353 Ry
     xc contribution           =     -40.98776815 Ry
     ewald contribution        =    -213.07964329 Ry

     convergence has been achieved in   9 iterations

     Forces acting on atoms (cartesian axes, Ry/au):

     atom    1 type  1   force =    -0.00000000   -0.00000000    0.00000000
     atom    2 type  2   force =     0.00000000    0.00000000   -0.00000000
     The non-local contrib.  to forces
     atom    1 type  1   force =     0.00000000    0.00000000    0.00000000
     atom    2 type  2   force =    -0.00000000    0.00000000   -0.00000000
     The ionic contribution  to forces
     atom    1 type  1   force =     0.00000000    0.00000000    0.00000000
     atom    2 type  2   force =     0.00000000    0.00000000   -0.00000000
     The local contribution  to forces
     atom    1 type  1   force =    -0.00000000   -0.00000000    0.00000000
     atom    2 type  2   force =     0.00000000    0.00000000   -0.00000000
     The core correction contribution to forces
     atom    1 type  1   force =     0.00000000    0.00000000    0.00000000
     atom    2 type  2   force =     0.00000000    0.00000000    0.00000000
     The Hubbard contrib.    to forces
     atom    1 type  1   force =     0.00000000    0.00000000    0.00000000
     atom    2 type  2   force =     0.00000000    0.00000000    0.00000000
     The SCF correction term to forces
     atom    1 type  1   force =     0.00000000    0.00000000   -0.00000000
     atom    2 type  2   force =     0.00000000    0.00000000   -0.00000000

     Total force =     0.000000     Total SCF correction =     0.000000

     Computing stress (Cartesian axis) and pressure

          total   stress  (Ry/bohr**3)                   (kbar)     P=      -29.17
  -0.00019826   0.00000000   0.00000000          -29.17        0.00        0.00
   0.00000000  -0.00019826   0.00000000            0.00      -29.17        0.00
  -0.00000000   0.00000000  -0.00019826           -0.00        0.00      -29.17

     Writing all to output data dir /home/paolo/project_labqsm/ZnS_zincblende/SCRATCH/zns.save/

     General routines

   This run was terminated on:  10:47:29   8Jun2024

   JOB DONE.