     Program PWSCF v.7.2 starts on 21May2024 at 18:56:56

     Waiting for input...
     Reading input from standard input

     Current dimensions of program PWSCF are:
     Max number of different atomic species (ntypx) = 10
     Max number of k-points (npk) =  40000
     Max angular momentum in pseudopotentials (lmaxx) =  4

     Using Slab Decomposition

     bravais-lattice index     =            2
     lattice parameter (alat)  =      10.8831  a.u.
     unit-cell volume          =     322.2531 (a.u.)^3
     number of atoms/cell      =            2
     number of atomic types    =            2
     number of electrons       =        28.00
     number of Kohn-Sham states=           14
     kinetic-energy cutoff     =      60.0000  Ry
     charge density cutoff     =     240.0000  Ry
     scf convergence threshold =      1.0E-08
     mixing beta               =       0.7000
     number of iterations used =            8  plain     mixing
     energy convergence thresh.=      1.0E-04
     force convergence thresh. =      1.0E-03
     press convergence thresh. =      5.0E-01
     Exchange-correlation= SLA  PW   NOGX NOGC
                           (   1   4   0   0   0   0   0)
     nstep                     =           50

     celldm(1)=  10.883093  celldm(2)=   0.000000  celldm(3)=   0.000000
     celldm(4)=   0.000000  celldm(5)=   0.000000  celldm(6)=   0.000000

     crystal axes: (cart. coord. in units of alat)
               a(1) = (  -0.500000   0.000000   0.500000 )
               a(2) = (   0.000000   0.500000   0.500000 )
               a(3) = (  -0.500000   0.500000   0.000000 )

     reciprocal axes: (cart. coord. in units 2 pi/alat)
               b(1) = ( -1.000000 -1.000000  1.000000 )
               b(2) = (  1.000000  1.000000  1.000000 )
               b(3) = ( -1.000000  1.000000 -1.000000 )

     PseudoPot. # 1 for Ga read from file:
     /home/paolo/project_labqsm/pseudopotentials/Ga.upf
     MD5 check sum: 1297264db1911d3fa8c63c42f023f390
     Pseudo is Norm-conserving + core correction, Zval = 13.0
     Generated using ONCVPSP code by D. R. Hamann
     Using radial grid of 1858 points,  6 beta functions with:
                l(1) =   0
                l(2) =   0
                l(3) =   1
                l(4) =   1
                l(5) =   2
                l(6) =   2

     PseudoPot. # 2 for As read from file:
     /home/paolo/project_labqsm/pseudopotentials/As.upf
     MD5 check sum: 33c531620a5edaf59d417d4ab58437b1
     Pseudo is Norm-conserving + core correction, Zval = 15.0
     Generated using ONCVPSP code by D. R. Hamann
     Using radial grid of 1326 points,  6 beta functions with:
                l(1) =   0
                l(2) =   0
                l(3) =   1
                l(4) =   1
                l(5) =   2
                l(6) =   2

     atomic species   valence    mass     pseudopotential
        Ga            13.00    69.72300     Ga( 1.00)
        As            15.00    74.92200     As( 1.00)

     24 Sym. Ops. (no inversion) found

   Cartesian axes

     site n.     atom                  positions (alat units)
         1           Ga  tau(   1) = (   0.0000000   0.0000000   0.0000000  )
         2           As  tau(   2) = (   0.2500000   0.2500000   0.2500000  )

     number of k points=    29
                       cart. coord. in units 2pi/alat
        k(    1) = (   0.0000000   0.0000000   0.0000000), wk =   0.0039062
        k(    2) = (  -0.1250000   0.1250000  -0.1250000), wk =   0.0312500
        k(    3) = (  -0.2500000   0.2500000  -0.2500000), wk =   0.0312500
        k(    4) = (  -0.3750000   0.3750000  -0.3750000), wk =   0.0312500
        k(    5) = (   0.5000000  -0.5000000   0.5000000), wk =   0.0156250
        k(    6) = (   0.0000000   0.2500000   0.0000000), wk =   0.0234375
        k(    7) = (  -0.1250000   0.3750000  -0.1250000), wk =   0.0937500
        k(    8) = (  -0.2500000   0.5000000  -0.2500000), wk =   0.0937500
        k(    9) = (   0.6250000  -0.3750000   0.6250000), wk =   0.0937500
        k(   10) = (   0.5000000  -0.2500000   0.5000000), wk =   0.0937500
        k(   11) = (   0.3750000  -0.1250000   0.3750000), wk =   0.0937500
        k(   12) = (   0.2500000   0.0000000   0.2500000), wk =   0.0468750
        k(   13) = (   0.0000000   0.5000000   0.0000000), wk =   0.0234375
        k(   14) = (  -0.1250000   0.6250000  -0.1250000), wk =   0.0937500
        k(   15) = (   0.7500000  -0.2500000   0.7500000), wk =   0.0937500
        k(   16) = (   0.6250000  -0.1250000   0.6250000), wk =   0.0937500
        k(   17) = (   0.5000000   0.0000000   0.5000000), wk =   0.0468750
        k(   18) = (   0.0000000   0.7500000   0.0000000), wk =   0.0234375
        k(   19) = (   0.8750000  -0.1250000   0.8750000), wk =   0.0937500
        k(   20) = (   0.7500000   0.0000000   0.7500000), wk =   0.0468750
        k(   21) = (   0.0000000  -1.0000000   0.0000000), wk =   0.0117188
        k(   22) = (  -0.2500000   0.5000000   0.0000000), wk =   0.0937500
        k(   23) = (   0.6250000  -0.3750000   0.8750000), wk =   0.1875000
        k(   24) = (   0.5000000  -0.2500000   0.7500000), wk =   0.0937500
        k(   25) = (   0.7500000  -0.2500000   1.0000000), wk =   0.0937500
        k(   26) = (   0.6250000  -0.1250000   0.8750000), wk =   0.1875000
        k(   27) = (   0.5000000   0.0000000   0.7500000), wk =   0.0937500
        k(   28) = (  -0.2500000  -1.0000000   0.0000000), wk =   0.0468750
        k(   29) = (  -0.5000000  -1.0000000   0.0000000), wk =   0.0234375

     Initial potential from superposition of free atoms

     starting charge      27.9977, renormalised to      28.0000
     Starting wfcs are   18 randomized atomic wfcs

     Self-consistent Calculation

     iteration #  1     ecut=    60.00 Ry     beta= 0.70
     Davidson diagonalization with overlap
     ethr =  1.00E-02,  avg # of iterations =  2.0

     Threshold (ethr) on eigenvalues was too large:
     Diagonalizing with lowered threshold

     Davidson diagonalization with overlap
     ethr =  1.73E-04,  avg # of iterations =  3.0

     total energy              =    -364.53052030 Ry
     estimated scf accuracy    <       0.05331904 Ry

[...]

     End of self-consistent calculation

          k = 0.0000 0.0000 0.0000 (  2637 PWs)   bands (ev):

   -27.8381 -27.8381 -27.8381 -27.8221 -27.8221  -7.1672  -7.1672  -7.1672
    -7.0982  -7.0982  -4.6836   7.5891   7.7249   7.7249

          k =-0.1250 0.1250-0.1250 (  2550 PWs)   bands (ev):

[...]

     highest occupied level (ev):     7.7249

!    total energy              =    -364.54160813 Ry
     estimated scf accuracy    <          2.4E-09 Ry

     The total energy is the sum of the following terms:
     one-electron contribution =    -198.65771616 Ry
     hartree contribution      =     116.57963762 Ry
     xc contribution           =     -87.74033837 Ry
     ewald contribution        =    -194.72319122 Ry

     convergence has been achieved in   8 iterations

     Forces acting on atoms (cartesian axes, Ry/au):

     atom    1 type  1   force =     0.00000000    0.00000000    0.00000000
     atom    2 type  2   force =    -0.00000000   -0.00000000   -0.00000000
     The non-local contrib.  to forces
     atom    1 type  1   force =    -0.00000000    0.00000000   -0.00000000
     atom    2 type  2   force =     0.00000000    0.00000000    0.00000000
     The ionic contribution  to forces
     atom    1 type  1   force =    -0.00000000   -0.00000000   -0.00000000
     atom    2 type  2   force =     0.00000000    0.00000000    0.00000000
     The local contribution  to forces
     atom    1 type  1   force =    -0.00000000    0.00000000    0.00000000
     atom    2 type  2   force =     0.00000000    0.00000000    0.00000000
     The core correction contribution to forces
     atom    1 type  1   force =    -0.00000000    0.00000000    0.00000000
     atom    2 type  2   force =    -0.00000000    0.00000000   -0.00000000
     The Hubbard contrib.    to forces
     atom    1 type  1   force =     0.00000000    0.00000000    0.00000000
     atom    2 type  2   force =     0.00000000    0.00000000    0.00000000
     The SCF correction term to forces
     atom    1 type  1   force =     0.00000000    0.00000000   -0.00000000
     atom    2 type  2   force =     0.00000000    0.00000000   -0.00000000

     Total force =     0.000000     Total SCF correction =     0.000000

     Computing stress (Cartesian axis) and pressure

          total   stress  (Ry/bohr**3)                   (kbar)     P=     -842.44
  -0.00572679   0.00000000  -0.00000000         -842.44        0.00       -0.00
  -0.00000000  -0.00572679  -0.00000000           -0.00     -842.44       -0.00
   0.00000000  -0.00000000  -0.00572679            0.00       -0.00     -842.44

     BFGS Geometry Optimization
     Energy error            =      0.0E+00 Ry
     Gradient error          =      3.6E-31 Ry/Bohr
     Cell gradient error     =      8.4E+02 kbar

     number of scf cycles    =   1
     number of bfgs steps    =   0

     enthalpy           new  =    -364.5416081290 Ry

     new trust radius        =       0.5000000000 bohr
     new conv_thr            =       0.0000000100 Ry

     new unit-cell volume =    205.49711 a.u.^3 (    30.45153 Ang^3 )
     density =      7.88757 g/cm^3

CELL_PARAMETERS (alat= 10.88309345)
  -0.430367583  -0.000000000   0.430367583
  -0.000000000   0.430367583   0.430367583
  -0.430367583   0.430367583  -0.000000000

ATOMIC_POSITIONS (alat)
Ga            0.0000000000        0.0000000000        0.0000000000
As            0.2151837914        0.2151837914        0.2151837914

     Writing config-only to output data dir ./SCRATCH/gallium_arsenide.save/
     NEW-OLD atomic charge density approx. for the potential

     negative rho (up, down):  3.463E-01 0.000E+00
     extrapolated charge   12.09271, renormalised to   28.00000

[...]

     Energy error            =      4.4E-02 Ry
     Gradient error          =      6.1E-31 Ry/Bohr
     Cell gradient error     =      6.2E+02 kbar

[...]

     enthalpy           old  =    -364.5416081290 Ry
     enthalpy           new  =    -364.5853545711 Ry

     CASE: enthalpy          _new < enthalpy          _old

[...]

     iteration #  1     ecut=    60.00 Ry     beta= 0.70
     Davidson diagonalization with overlap
     c_bands:  1 eigenvalues not converged
     c_bands:  1 eigenvalues not converged
     c_bands:  1 eigenvalues not converged
     c_bands:  1 eigenvalues not converged
     ethr =  1.00E-06,  avg # of iterations = 16.6

     negative rho (up, down):  1.600E-07 0.000E+00

[...]

     Writing config-only to output data dir ./SCRATCH/gallium_arsenide.save/
     NEW-OLD atomic charge density approx. for the potential

     negative rho (up, down):  4.386E-07 0.000E+00
     extrapolated charge   30.21038, renormalised to   28.00000

[...]

     negative rho (up, down):  4.474E-08 0.000E+00

[...]

     Writing config-only to output data dir ./SCRATCH/gallium_arsenide.save/
     NEW-OLD atomic charge density approx. for the potential
     extrapolated charge   27.79098, renormalised to   28.00000

[...]

     number of scf cycles    =   5
     number of bfgs steps    =   4

     enthalpy           old  =    -364.6972177054 Ry
     enthalpy           new  =    -364.6973223770 Ry

     CASE: enthalpy          _new < enthalpy          _old

     new trust radius        =       0.0008827659 bohr
     new conv_thr            =            1.0E-10 Ry

     new unit-cell volume =    261.86723 a.u.^3 (    38.80472 Ang^3 )
     density =      6.18968 g/cm^3

[...]

ATOMIC_POSITIONS (alat)
Ga            0.0000000000        0.0000000000       -0.0000000000
As            0.2332928165        0.2332928165        0.2332928165

     Writing config-only to output data dir ./SCRATCH/gallium_arsenide.save/
     NEW-OLD atomic charge density approx. for the potential
     extrapolated charge   28.02291, renormalised to   28.00000

[...]

     Energy error            =      1.6E-06 Ry
     Gradient error          =      5.6E-31 Ry/Bohr
     Cell gradient error     =      8.7E-03 kbar

     bfgs converged in   6 scf cycles and   5 bfgs steps
     (criteria: energy <  1.0E-04 Ry, force <  1.0E-03 Ry/Bohr, cell <  5.0E-01 kbar)

     End of BFGS Geometry Optimization

     Final enthalpy           =    -364.6973239937 Ry

     File ./SCRATCH/gallium_arsenide.bfgs deleted, as requested
Begin final coordinates
     new unit-cell volume =    261.86723 a.u.^3 (    38.80472 Ang^3 )
     density =      6.18968 g/cm^3

CELL_PARAMETERS (alat= 10.88309345)
  -0.466585633  -0.000000000   0.466585633
  -0.000000000   0.466585633   0.466585633
  -0.466585633   0.466585633   0.000000000

ATOMIC_POSITIONS (alat)
Ga            0.0000000000        0.0000000000       -0.0000000000
As            0.2332928165        0.2332928165        0.2332928165
End final coordinates

     Writing config-only to output data dir ./SCRATCH/gallium_arsenide.save/

     Final scf calculation at the relaxed structure.
     The G-vectors are recalculated for the final unit cell
     Results may differ from those at the preceding step.

     Using Slab Decomposition

     bravais-lattice index     =            2
     lattice parameter (alat)  =      10.8831  a.u.
     unit-cell volume          =     261.8672 (a.u.)^3
     number of atoms/cell      =            2
     number of atomic types    =            2
     number of electrons       =        28.00
     number of Kohn-Sham states=           14
     kinetic-energy cutoff     =      60.0000  Ry
     charge density cutoff     =     240.0000  Ry
     scf convergence threshold =      1.0E-10
     mixing beta               =       0.7000
     number of iterations used =            8  plain     mixing
     press convergence thresh. =      5.0E-01
     Exchange-correlation= SLA  PW   NOGX NOGC
                           (   1   4   0   0   0   0   0)

     celldm(1)=  10.883093  celldm(2)=   0.000000  celldm(3)=   0.000000
     celldm(4)=   0.000000  celldm(5)=   0.000000  celldm(6)=   0.000000

     crystal axes: (cart. coord. in units of alat)
               a(1) = (  -0.466586  -0.000000   0.466586 )
               a(2) = (  -0.000000   0.466586   0.466586 )
               a(3) = (  -0.466586   0.466586   0.000000 )

     reciprocal axes: (cart. coord. in units 2 pi/alat)
               b(1) = ( -1.071615 -1.071615  1.071615 )
               b(2) = (  1.071615  1.071615  1.071615 )
               b(3) = ( -1.071615  1.071615 -1.071615 )

     PseudoPot. # 1 for Ga read from file:
     /home/paolo/project_labqsm/pseudopotentials/Ga.upf
     MD5 check sum: 1297264db1911d3fa8c63c42f023f390
     Pseudo is Norm-conserving + core correction, Zval = 13.0
     Generated using ONCVPSP code by D. R. Hamann
     Using radial grid of 1858 points,  6 beta functions with:
                l(1) =   0
                l(2) =   0
                l(3) =   1
                l(4) =   1
                l(5) =   2
                l(6) =   2

     PseudoPot. # 2 for As read from file:
     /home/paolo/project_labqsm/pseudopotentials/As.upf
     MD5 check sum: 33c531620a5edaf59d417d4ab58437b1
     Pseudo is Norm-conserving + core correction, Zval = 15.0
     Generated using ONCVPSP code by D. R. Hamann
     Using radial grid of 1326 points,  6 beta functions with:
                l(1) =   0
                l(2) =   0
                l(3) =   1
                l(4) =   1
                l(5) =   2
                l(6) =   2

     atomic species   valence    mass     pseudopotential
        Ga            13.00    69.72300     Ga( 1.00)
        As            15.00    74.92200     As( 1.00)

     24 Sym. Ops. (no inversion) found

   Cartesian axes

     site n.     atom                  positions (alat units)
         1           Ga  tau(   1) = (   0.0000000   0.0000000  -0.0000000  )
         2           As  tau(   2) = (   0.2332928   0.2332928   0.2332928  )

     number of k points=    29
                       cart. coord. in units 2pi/alat
        k(    1) = (   0.0000000   0.0000000   0.0000000), wk =   0.0039062
        k(    2) = (  -0.1339518   0.1339518  -0.1339518), wk =   0.0312500
        k(    3) = (  -0.2679037   0.2679037  -0.2679037), wk =   0.0312500
        k(    4) = (  -0.4018555   0.4018555  -0.4018555), wk =   0.0312500
        k(    5) = (   0.5358073  -0.5358073   0.5358073), wk =   0.0156250
        k(    6) = (   0.0000000   0.2679037   0.0000000), wk =   0.0234375
        k(    7) = (  -0.1339518   0.4018555  -0.1339518), wk =   0.0937500
        k(    8) = (  -0.2679037   0.5358073  -0.2679037), wk =   0.0937500
        k(    9) = (   0.6697592  -0.4018555   0.6697592), wk =   0.0937500
        k(   10) = (   0.5358073  -0.2679037   0.5358073), wk =   0.0937500
        k(   11) = (   0.4018555  -0.1339518   0.4018555), wk =   0.0937500
        k(   12) = (   0.2679037   0.0000000   0.2679037), wk =   0.0468750
        k(   13) = (   0.0000000   0.5358073   0.0000000), wk =   0.0234375
        k(   14) = (  -0.1339518   0.6697592  -0.1339518), wk =   0.0937500
        k(   15) = (   0.8037110  -0.2679037   0.8037110), wk =   0.0937500
        k(   16) = (   0.6697592  -0.1339518   0.6697592), wk =   0.0937500
        k(   17) = (   0.5358073   0.0000000   0.5358073), wk =   0.0468750
        k(   18) = (   0.0000000   0.8037110   0.0000000), wk =   0.0234375
        k(   19) = (   0.9376628  -0.1339518   0.9376628), wk =   0.0937500
        k(   20) = (   0.8037110   0.0000000   0.8037110), wk =   0.0468750
        k(   21) = (  -0.0000000  -1.0716147  -0.0000000), wk =   0.0117188
        k(   22) = (  -0.2679037   0.5358073   0.0000000), wk =   0.0937500
        k(   23) = (   0.6697592  -0.4018555   0.9376628), wk =   0.1875000
        k(   24) = (   0.5358073  -0.2679037   0.8037110), wk =   0.0937500
        k(   25) = (   0.8037110  -0.2679037   1.0716147), wk =   0.0937500
        k(   26) = (   0.6697592  -0.1339518   0.9376628), wk =   0.1875000
        k(   27) = (   0.5358073   0.0000000   0.8037110), wk =   0.0937500
        k(   28) = (  -0.2679037  -1.0716147  -0.0000000), wk =   0.0468750
        k(   29) = (  -0.5358073  -1.0716147  -0.0000000), wk =   0.0234375

     Initial potential from superposition of free atoms

     starting charge      27.9977, renormalised to      28.0000
     Starting wfcs are   18 randomized atomic wfcs

     Self-consistent Calculation

[...]

     total energy              =    -364.53411263 Ry
     estimated scf accuracy    <          2.8E-10 Ry

     iteration #  9     ecut=    60.00 Ry     beta= 0.70
     Davidson diagonalization with overlap
     ethr =  1.01E-12,  avg # of iterations =  3.2

     End of self-consistent calculation

[...]

          k = 0.5358 0.0000 0.8037 (  2054 PWs)   bands (ev):

[...]

          k =-0.5358-1.0716-0.0000 (  2048 PWs)   bands (ev):

   -24.9761 -24.9755 -24.9743 -24.9632 -24.9380  -4.6611  -4.4428  -4.4279
    -4.3900  -4.3612   0.1507   3.4371   6.4982   6.6876

     highest occupied level (ev):    10.8264

!    total energy              =    -364.53411263 Ry
     estimated scf accuracy    <          1.0E-11 Ry

     The total energy is the sum of the following terms:
     one-electron contribution =    -175.98541683 Ry
     hartree contribution      =     108.10055889 Ry
     xc contribution           =     -87.98103024 Ry
     ewald contribution        =    -208.66822445 Ry

     convergence has been achieved in   9 iterations

     Forces acting on atoms (cartesian axes, Ry/au):

     atom    1 type  1   force =     0.00000000    0.00000000    0.00000000
     atom    2 type  2   force =     0.00000000    0.00000000   -0.00000000
     The non-local contrib.  to forces
     atom    1 type  1   force =    -0.00000000    0.00000000    0.00000000
     atom    2 type  2   force =    -0.00000000    0.00000000   -0.00000000
     The ionic contribution  to forces
     atom    1 type  1   force =    -0.00000000    0.00000000   -0.00000000
     atom    2 type  2   force =    -0.00000000   -0.00000000    0.00000000
     The local contribution  to forces
     atom    1 type  1   force =     0.00000000   -0.00000000    0.00000000
     atom    2 type  2   force =     0.00000000   -0.00000000    0.00000000
     The core correction contribution to forces
     atom    1 type  1   force =     0.00000000   -0.00000000    0.00000000
     atom    2 type  2   force =     0.00000000   -0.00000000   -0.00000000
     The Hubbard contrib.    to forces
     atom    1 type  1   force =     0.00000000    0.00000000    0.00000000
     atom    2 type  2   force =     0.00000000    0.00000000    0.00000000
     The SCF correction term to forces
     atom    1 type  1   force =     0.00000000    0.00000000   -0.00000000
     atom    2 type  2   force =     0.00000000   -0.00000000   -0.00000000

     Total force =     0.000000     Total SCF correction =     0.000000

     Computing stress (Cartesian axis) and pressure

          total   stress  (Ry/bohr**3)                   (kbar)     P=     -849.03
  -0.00577162   0.00000000   0.00000000         -849.03        0.00        0.00
   0.00000000  -0.00577162   0.00000000            0.00     -849.03        0.00
   0.00000000   0.00000000  -0.00577162            0.00        0.00     -849.03

     Writing all to output data dir ./SCRATCH/gallium_arsenide.save/

     General routines

   This run was terminated on:  19: 1:16  21May2024

   JOB DONE.