     Program PWSCF v.7.2 starts on  9Jun2024 at 11:36:34

     Waiting for input...
     Reading input from standard input

     Current dimensions of program PWSCF are:
     Max number of different atomic species (ntypx) = 10
     Max number of k-points (npk) =  40000
     Max angular momentum in pseudopotentials (lmaxx) =  4

     Using Slab Decomposition

     bravais-lattice index     =            2
     lattice parameter (alat)  =      10.7763  a.u.
     unit-cell volume          =     312.8555 (a.u.)^3
     number of atoms/cell      =            2
     number of atomic types    =            1
     number of electrons       =         8.00
     number of Kohn-Sham states=            4
     kinetic-energy cutoff     =      60.0000  Ry
     charge density cutoff     =     240.0000  Ry
     scf convergence threshold =      1.0E-08
     mixing beta               =       0.7000
     number of iterations used =            8  plain     mixing
     energy convergence thresh.=      1.0E-05
     force convergence thresh. =      1.0E-04
     press convergence thresh. =      5.0E-01
     Exchange-correlation= PBE
                           (   1   4   3   4   0   0   0)
     nstep                     =           50

     celldm(1)=  10.776257  celldm(2)=   0.000000  celldm(3)=   0.000000
     celldm(4)=   0.000000  celldm(5)=   0.000000  celldm(6)=   0.000000

     crystal axes: (cart. coord. in units of alat)
               a(1) = (  -0.500000   0.000000   0.500000 )
               a(2) = (   0.000000   0.500000   0.500000 )
               a(3) = (  -0.500000   0.500000   0.000000 )

     reciprocal axes: (cart. coord. in units 2 pi/alat)
               b(1) = ( -1.000000 -1.000000  1.000000 )
               b(2) = (  1.000000  1.000000  1.000000 )
               b(3) = ( -1.000000  1.000000 -1.000000 )

     PseudoPot. # 1 for Si read from file:
     /home/paolo/project_labqsm/pseudopotentials/Si_ONCV_PBE-1.2.upf
     MD5 check sum: 7f029a58b69e3aa87b46a36c608bf45e
     Pseudo is Norm-conserving, Zval =  4.0
     Generated using ONCVPSP code by D. R. Hamann
     Using radial grid of  602 points,  4 beta functions with:
                l(1) =   0
                l(2) =   0
                l(3) =   1
                l(4) =   1

     atomic species   valence    mass     pseudopotential
        Si             4.00    28.08500     Si( 1.00)

     48 Sym. Ops., with inversion, found (24 have fractional translation)

   Cartesian axes

     site n.     atom                  positions (alat units)
         1           Si  tau(   1) = (   0.0000000   0.0000000   0.0000000  )
         2           Si  tau(   2) = (   0.2500000   0.2500000   0.2500000  )

     number of k points=    29
                       cart. coord. in units 2pi/alat
        k(    1) = (   0.0000000   0.0000000   0.0000000), wk =   0.0039062
        k(    2) = (  -0.1250000   0.1250000  -0.1250000), wk =   0.0312500
        k(    3) = (  -0.2500000   0.2500000  -0.2500000), wk =   0.0312500
        k(    4) = (  -0.3750000   0.3750000  -0.3750000), wk =   0.0312500
        k(    5) = (   0.5000000  -0.5000000   0.5000000), wk =   0.0156250
        k(    6) = (   0.0000000   0.2500000   0.0000000), wk =   0.0234375
        k(    7) = (  -0.1250000   0.3750000  -0.1250000), wk =   0.0937500
        k(    8) = (  -0.2500000   0.5000000  -0.2500000), wk =   0.0937500
        k(    9) = (   0.6250000  -0.3750000   0.6250000), wk =   0.0937500
        k(   10) = (   0.5000000  -0.2500000   0.5000000), wk =   0.0937500
        k(   11) = (   0.3750000  -0.1250000   0.3750000), wk =   0.0937500
        k(   12) = (   0.2500000   0.0000000   0.2500000), wk =   0.0468750
        k(   13) = (   0.0000000   0.5000000   0.0000000), wk =   0.0234375
        k(   14) = (  -0.1250000   0.6250000  -0.1250000), wk =   0.0937500
        k(   15) = (   0.7500000  -0.2500000   0.7500000), wk =   0.0937500
        k(   16) = (   0.6250000  -0.1250000   0.6250000), wk =   0.0937500
        k(   17) = (   0.5000000   0.0000000   0.5000000), wk =   0.0468750
        k(   18) = (   0.0000000   0.7500000   0.0000000), wk =   0.0234375
        k(   19) = (   0.8750000  -0.1250000   0.8750000), wk =   0.0937500
        k(   20) = (   0.7500000   0.0000000   0.7500000), wk =   0.0468750
        k(   21) = (   0.0000000  -1.0000000   0.0000000), wk =   0.0117188
        k(   22) = (  -0.2500000   0.5000000   0.0000000), wk =   0.0937500
        k(   23) = (   0.6250000  -0.3750000   0.8750000), wk =   0.1875000
        k(   24) = (   0.5000000  -0.2500000   0.7500000), wk =   0.0937500
        k(   25) = (   0.7500000  -0.2500000   1.0000000), wk =   0.0937500
        k(   26) = (   0.6250000  -0.1250000   0.8750000), wk =   0.1875000
        k(   27) = (   0.5000000   0.0000000   0.7500000), wk =   0.0937500
        k(   28) = (  -0.2500000  -1.0000000   0.0000000), wk =   0.0468750
        k(   29) = (  -0.5000000  -1.0000000   0.0000000), wk =   0.0234375

     Initial potential from superposition of free atoms

     starting charge       7.9075, renormalised to       8.0000
     Starting wfcs are random

     Self-consistent Calculation

     iteration #  1     ecut=    60.00 Ry     beta= 0.70
     Davidson diagonalization with overlap
     ethr =  1.00E-02,  avg # of iterations =  8.3

     Threshold (ethr) on eigenvalues was too large:
     Diagonalizing with lowered threshold

     Davidson diagonalization with overlap
     ethr =  4.32E-04,  avg # of iterations =  4.2

     total energy              =     -15.75355446 Ry
     estimated scf accuracy    <       0.04071332 Ry

[...]

     End of self-consistent calculation

          k = 0.0000 0.0000 0.0000 (  2445 PWs)   bands (ev):

    -6.2232   4.7904   4.7904   4.7904

          k =-0.1250 0.1250-0.1250 (  2475 PWs)   bands (ev):

[...]

     highest occupied level (ev):     4.7904

!    total energy              =     -15.75541806 Ry
     estimated scf accuracy    <          1.0E-09 Ry

     The total energy is the sum of the following terms:
     one-electron contribution =       3.67577749 Ry
     hartree contribution      =       1.23350498 Ry
     xc contribution           =      -4.66865121 Ry
     ewald contribution        =     -15.99604932 Ry

     convergence has been achieved in   6 iterations

     Forces acting on atoms (cartesian axes, Ry/au):

     atom    1 type  1   force =     0.00000000   -0.00000000    0.00000000
     atom    2 type  1   force =     0.00000000    0.00000000   -0.00000000
     The non-local contrib.  to forces
     atom    1 type  1   force =     0.00000000    0.00000000   -0.00000000
     atom    2 type  1   force =     0.00000000    0.00000000    0.00000000
     The ionic contribution  to forces
     atom    1 type  1   force =    -0.00000000   -0.00000000   -0.00000000
     atom    2 type  1   force =     0.00000000    0.00000000    0.00000000
     The local contribution  to forces
     atom    1 type  1   force =     0.00000000    0.00000000   -0.00000000
     atom    2 type  1   force =     0.00000000   -0.00000000   -0.00000000
     The core correction contribution to forces
     atom    1 type  1   force =     0.00000000    0.00000000    0.00000000
     atom    2 type  1   force =     0.00000000    0.00000000    0.00000000
     The Hubbard contrib.    to forces
     atom    1 type  1   force =     0.00000000    0.00000000    0.00000000
     atom    2 type  1   force =     0.00000000    0.00000000    0.00000000
     The SCF correction term to forces
     atom    1 type  1   force =    -0.00000000    0.00000000    0.00000000
     atom    2 type  1   force =    -0.00000000    0.00000000    0.00000000

     Total force =     0.000000     Total SCF correction =     0.000000

     Computing stress (Cartesian axis) and pressure

          total   stress  (Ry/bohr**3)                   (kbar)     P=      -81.30
  -0.00055264  -0.00000000   0.00000000          -81.30       -0.00        0.00
   0.00000000  -0.00055264   0.00000000            0.00      -81.30        0.00
  -0.00000000   0.00000000  -0.00055264           -0.00        0.00      -81.30

     BFGS Geometry Optimization
     Energy error            =      0.0E+00 Ry
     Gradient error          =      2.1E-33 Ry/Bohr
     Cell gradient error     =      8.1E+01 kbar

     number of scf cycles    =   1
     number of bfgs steps    =   0

     enthalpy           new  =     -15.7554180556 Ry

     new trust radius        =       0.0488747184 bohr
     new conv_thr            =       0.0000000100 Ry

     new unit-cell volume =    300.06661 a.u.^3 (    44.46528 Ang^3 )
     density =      2.09765 g/cm^3

CELL_PARAMETERS (alat= 10.77625694)
  -0.493091999   0.000000000   0.493091999
   0.000000000   0.493091999   0.493091999
  -0.493091999   0.493091999   0.000000000

ATOMIC_POSITIONS (alat)
Si            0.0000000000       -0.0000000000        0.0000000000
Si            0.2465459997        0.2465459997        0.2465459997

     Writing config-only to output data dir /home/paolo/project_labqsm/Silicon/SCRATCH/silicon.save/
     NEW-OLD atomic charge density approx. for the potential
     extrapolated charge    7.66298, renormalised to    8.00000

[...]

     Energy error            =      6.1E-03 Ry
     Gradient error          =      4.2E-33 Ry/Bohr
     Cell gradient error     =      5.8E+01 kbar

[...]

     enthalpy           old  =     -15.7554180556 Ry
     enthalpy           new  =     -15.7615323378 Ry

     CASE: enthalpy          _new < enthalpy          _old

[...]

     number of scf cycles    =   4
     number of bfgs steps    =   3

     enthalpy           old  =     -15.7661977424 Ry
     enthalpy           new  =     -15.7663857821 Ry

     CASE: enthalpy          _new < enthalpy          _old

     new trust radius        =       0.0024979572 bohr
     new conv_thr            =            1.0E-10 Ry

     new unit-cell volume =    277.27532 a.u.^3 (    41.08796 Ang^3 )
     density =      2.27007 g/cm^3

[...]

ATOMIC_POSITIONS (alat)
Si            0.0000000000        0.0000000000        0.0000000000
Si            0.2401388770        0.2401388770        0.2401388770

     Writing config-only to output data dir /home/paolo/project_labqsm/Silicon/SCRATCH/silicon.save/
     NEW-OLD atomic charge density approx. for the potential
     extrapolated charge    8.01779, renormalised to    8.00000

[...]

     Threshold (ethr) on eigenvalues was too large:
     Diagonalizing with lowered threshold

     Davidson diagonalization with overlap
     ethr =  2.41E-08,  avg # of iterations =  3.2

[...]

     Energy error            =      4.0E-06 Ry
     Gradient error          =      8.6E-32 Ry/Bohr
     Cell gradient error     =      4.8E-02 kbar

     bfgs converged in   5 scf cycles and   4 bfgs steps
     (criteria: energy <  1.0E-05 Ry, force <  1.0E-04 Ry/Bohr, cell <  5.0E-01 kbar)

     End of BFGS Geometry Optimization

     Final enthalpy           =     -15.7663897721 Ry

     File /home/paolo/project_labqsm/Silicon/SCRATCH/silicon.bfgs deleted, as requested
Begin final coordinates
     new unit-cell volume =    277.27532 a.u.^3 (    41.08796 Ang^3 )
     density =      2.27007 g/cm^3

CELL_PARAMETERS (alat= 10.77625694)
  -0.480277754   0.000000000   0.480277754
   0.000000000   0.480277754   0.480277754
  -0.480277754   0.480277754   0.000000000

ATOMIC_POSITIONS (alat)
Si            0.0000000000        0.0000000000        0.0000000000
Si            0.2401388770        0.2401388770        0.2401388770
End final coordinates

     Writing config-only to output data dir /home/paolo/project_labqsm/Silicon/SCRATCH/silicon.save/

     Final scf calculation at the relaxed structure.
     The G-vectors are recalculated for the final unit cell
     Results may differ from those at the preceding step.

     Using Slab Decomposition

     bravais-lattice index     =            2
     lattice parameter (alat)  =      10.7763  a.u.
     unit-cell volume          =     277.2753 (a.u.)^3
     number of atoms/cell      =            2
     number of atomic types    =            1
     number of electrons       =         8.00
     number of Kohn-Sham states=            4
     kinetic-energy cutoff     =      60.0000  Ry
     charge density cutoff     =     240.0000  Ry
     scf convergence threshold =      1.0E-10
     mixing beta               =       0.7000
     number of iterations used =            8  plain     mixing
     press convergence thresh. =      5.0E-01
     Exchange-correlation= PBE
                           (   1   4   3   4   0   0   0)

     celldm(1)=  10.776257  celldm(2)=   0.000000  celldm(3)=   0.000000
     celldm(4)=   0.000000  celldm(5)=   0.000000  celldm(6)=   0.000000

     crystal axes: (cart. coord. in units of alat)
               a(1) = (  -0.480278   0.000000   0.480278 )
               a(2) = (   0.000000   0.480278   0.480278 )
               a(3) = (  -0.480278   0.480278   0.000000 )

     reciprocal axes: (cart. coord. in units 2 pi/alat)
               b(1) = ( -1.041064 -1.041064  1.041064 )
               b(2) = (  1.041064  1.041064  1.041064 )
               b(3) = ( -1.041064  1.041064 -1.041064 )

     PseudoPot. # 1 for Si read from file:
     /home/paolo/project_labqsm/pseudopotentials/Si_ONCV_PBE-1.2.upf
     MD5 check sum: 7f029a58b69e3aa87b46a36c608bf45e
     Pseudo is Norm-conserving, Zval =  4.0
     Generated using ONCVPSP code by D. R. Hamann
     Using radial grid of  602 points,  4 beta functions with:
                l(1) =   0
                l(2) =   0
                l(3) =   1
                l(4) =   1

     atomic species   valence    mass     pseudopotential
        Si             4.00    28.08500     Si( 1.00)

     48 Sym. Ops., with inversion, found (24 have fractional translation)

   Cartesian axes

     site n.     atom                  positions (alat units)
         1           Si  tau(   1) = (   0.0000000   0.0000000   0.0000000  )
         2           Si  tau(   2) = (   0.2401389   0.2401389   0.2401389  )

     number of k points=    29
                       cart. coord. in units 2pi/alat
        k(    1) = (   0.0000000   0.0000000   0.0000000), wk =   0.0039062
        k(    2) = (  -0.1301330   0.1301330  -0.1301330), wk =   0.0312500
        k(    3) = (  -0.2602661   0.2602661  -0.2602661), wk =   0.0312500
        k(    4) = (  -0.3903991   0.3903991  -0.3903991), wk =   0.0312500
        k(    5) = (   0.5205321  -0.5205321   0.5205321), wk =   0.0156250
        k(    6) = (   0.0000000   0.2602661   0.0000000), wk =   0.0234375
        k(    7) = (  -0.1301330   0.3903991  -0.1301330), wk =   0.0937500
        k(    8) = (  -0.2602661   0.5205321  -0.2602661), wk =   0.0937500
        k(    9) = (   0.6506652  -0.3903991   0.6506652), wk =   0.0937500
        k(   10) = (   0.5205321  -0.2602661   0.5205321), wk =   0.0937500
        k(   11) = (   0.3903991  -0.1301330   0.3903991), wk =   0.0937500
        k(   12) = (   0.2602661   0.0000000   0.2602661), wk =   0.0468750
        k(   13) = (   0.0000000   0.5205321   0.0000000), wk =   0.0234375
        k(   14) = (  -0.1301330   0.6506652  -0.1301330), wk =   0.0937500
        k(   15) = (   0.7807982  -0.2602661   0.7807982), wk =   0.0937500
        k(   16) = (   0.6506652  -0.1301330   0.6506652), wk =   0.0937500
        k(   17) = (   0.5205321   0.0000000   0.5205321), wk =   0.0468750
        k(   18) = (   0.0000000   0.7807982   0.0000000), wk =   0.0234375
        k(   19) = (   0.9109312  -0.1301330   0.9109312), wk =   0.0937500
        k(   20) = (   0.7807982   0.0000000   0.7807982), wk =   0.0468750
        k(   21) = (   0.0000000  -1.0410643   0.0000000), wk =   0.0117188
        k(   22) = (  -0.2602661   0.5205321   0.0000000), wk =   0.0937500
        k(   23) = (   0.6506652  -0.3903991   0.9109312), wk =   0.1875000
        k(   24) = (   0.5205321  -0.2602661   0.7807982), wk =   0.0937500
        k(   25) = (   0.7807982  -0.2602661   1.0410643), wk =   0.0937500
        k(   26) = (   0.6506652  -0.1301330   0.9109312), wk =   0.1875000
        k(   27) = (   0.5205321   0.0000000   0.7807982), wk =   0.0937500
        k(   28) = (  -0.2602661  -1.0410643   0.0000000), wk =   0.0468750
        k(   29) = (  -0.5205321  -1.0410643   0.0000000), wk =   0.0234375

     Initial potential from superposition of free atoms

     starting charge       7.9075, renormalised to       8.0000
     Starting wfcs are random

     Self-consistent Calculation

     iteration #  1     ecut=    60.00 Ry     beta= 0.70
     Davidson diagonalization with overlap
     c_bands:  3 eigenvalues not converged
     c_bands:  3 eigenvalues not converged
     c_bands:  2 eigenvalues not converged
     c_bands:  1 eigenvalues not converged
     c_bands:  1 eigenvalues not converged
     c_bands:  3 eigenvalues not converged
     c_bands:  2 eigenvalues not converged
     c_bands:  1 eigenvalues not converged
     c_bands:  2 eigenvalues not converged
     c_bands:  1 eigenvalues not converged
     c_bands:  2 eigenvalues not converged
     c_bands:  1 eigenvalues not converged
     c_bands:  1 eigenvalues not converged
     c_bands:  2 eigenvalues not converged
     c_bands:  1 eigenvalues not converged
     ethr =  1.00E-06,  avg # of iterations = 19.0

[...]

     total energy              =     -15.76637801 Ry
     estimated scf accuracy    <       0.00000001 Ry

     iteration #  7     ecut=    60.00 Ry     beta= 0.70
     Davidson diagonalization with overlap
     ethr =  1.70E-10,  avg # of iterations =  3.5

     End of self-consistent calculation

[...]

          k = 0.5205 0.0000 0.7808 (  2192 PWs)   bands (ev):

[...]

          k =-0.5205-1.0411 0.0000 (  2180 PWs)   bands (ev):

    -1.6243  -1.6243   2.2203   2.2203

     highest occupied level (ev):     5.9565

!    total energy              =     -15.76637802 Ry
     estimated scf accuracy    <          3.2E-11 Ry

     The total energy is the sum of the following terms:
     one-electron contribution =       4.55076457 Ry
     hartree contribution      =       1.12472857 Ry
     xc contribution           =      -4.78895606 Ry
     ewald contribution        =     -16.65291509 Ry

     convergence has been achieved in   7 iterations

     Forces acting on atoms (cartesian axes, Ry/au):

     atom    1 type  1   force =    -0.00000000   -0.00000000    0.00000000
     atom    2 type  1   force =     0.00000000    0.00000000   -0.00000000
     The non-local contrib.  to forces
     atom    1 type  1   force =     0.00000000    0.00000000   -0.00000000
     atom    2 type  1   force =     0.00000000    0.00000000    0.00000000
     The ionic contribution  to forces
     atom    1 type  1   force =    -0.00000000    0.00000000    0.00000000
     atom    2 type  1   force =     0.00000000    0.00000000    0.00000000
     The local contribution  to forces
     atom    1 type  1   force =    -0.00000000    0.00000000    0.00000000
     atom    2 type  1   force =     0.00000000    0.00000000    0.00000000
     The core correction contribution to forces
     atom    1 type  1   force =     0.00000000    0.00000000    0.00000000
     atom    2 type  1   force =     0.00000000    0.00000000    0.00000000
     The Hubbard contrib.    to forces
     atom    1 type  1   force =     0.00000000    0.00000000    0.00000000
     atom    2 type  1   force =     0.00000000    0.00000000    0.00000000
     The SCF correction term to forces
     atom    1 type  1   force =     0.00000000   -0.00000000   -0.00000000
     atom    2 type  1   force =    -0.00000000    0.00000000    0.00000000

     Total force =     0.000000     Total SCF correction =     0.000000

     Computing stress (Cartesian axis) and pressure

          total   stress  (Ry/bohr**3)                   (kbar)     P=       -0.08
  -0.00000051  -0.00000000  -0.00000000           -0.08       -0.00       -0.00
  -0.00000000  -0.00000051   0.00000000           -0.00       -0.08        0.00
  -0.00000000   0.00000000  -0.00000051           -0.00        0.00       -0.08

     Writing all to output data dir /home/paolo/project_labqsm/Silicon/SCRATCH/silicon.save/

     General routines

   This run was terminated on:  11:37: 9   9Jun2024

   JOB DONE.