     Program PWSCF v.7.2 starts on 12May2024 at 12:21:54

     Waiting for input...
     Reading input from standard input

     Current dimensions of program PWSCF are:
     Max number of different atomic species (ntypx) = 10
     Max number of k-points (npk) =  40000
     Max angular momentum in pseudopotentials (lmaxx) =  4

     Using Slab Decomposition

     bravais-lattice index     =            2
     lattice parameter (alat)  =      10.7763  a.u.
     unit-cell volume          =     312.8555 (a.u.)^3
     number of atoms/cell      =            2
     number of atomic types    =            1
     number of electrons       =         8.00
     number of Kohn-Sham states=            4
     kinetic-energy cutoff     =      60.0000  Ry
     charge density cutoff     =     240.0000  Ry
     scf convergence threshold =      1.0E-08
     mixing beta               =       0.7000
     number of iterations used =            8  plain     mixing
     energy convergence thresh.=      1.0E-05
     force convergence thresh. =      1.0E-04
     press convergence thresh. =      5.0E-01
     Exchange-correlation=  SLA  PZ   NOGX NOGC
                           (   1   1   0   0   0   0   0)
     nstep                     =           50

     celldm(1)=  10.776257  celldm(2)=   0.000000  celldm(3)=   0.000000
     celldm(4)=   0.000000  celldm(5)=   0.000000  celldm(6)=   0.000000

     crystal axes: (cart. coord. in units of alat)
               a(1) = (  -0.500000   0.000000   0.500000 )
               a(2) = (   0.000000   0.500000   0.500000 )
               a(3) = (  -0.500000   0.500000   0.000000 )

     reciprocal axes: (cart. coord. in units 2 pi/alat)
               b(1) = ( -1.000000 -1.000000  1.000000 )
               b(2) = (  1.000000  1.000000  1.000000 )
               b(3) = ( -1.000000  1.000000 -1.000000 )

     PseudoPot. # 1 for Si read from file:
     /home/paolo/project_labqsm/pseudopotentials/Si.pz-vbc.UPF
     MD5 check sum: dc3b11d017da532b29132e08c0a6883c
     Pseudo is Norm-conserving, Zval =  4.0
     Generated by new atomic code, or converted to UPF format
     Using radial grid of  431 points,  2 beta functions with:
                l(1) =   0
                l(2) =   1

     atomic species   valence    mass     pseudopotential
        Si             4.00    28.08500     Si( 1.00)

     48 Sym. Ops., with inversion, found (24 have fractional translation)

   Cartesian axes

     site n.     atom                  positions (alat units)
         1           Si  tau(   1) = (   0.0000000   0.0000000   0.0000000  )
         2           Si  tau(   2) = (   0.2500000   0.2500000   0.2500000  )

     number of k points=    29
                       cart. coord. in units 2pi/alat
        k(    1) = (   0.0000000   0.0000000   0.0000000), wk =   0.0039062
        k(    2) = (  -0.1250000   0.1250000  -0.1250000), wk =   0.0312500
        k(    3) = (  -0.2500000   0.2500000  -0.2500000), wk =   0.0312500
        k(    4) = (  -0.3750000   0.3750000  -0.3750000), wk =   0.0312500
        k(    5) = (   0.5000000  -0.5000000   0.5000000), wk =   0.0156250
        k(    6) = (   0.0000000   0.2500000   0.0000000), wk =   0.0234375
        k(    7) = (  -0.1250000   0.3750000  -0.1250000), wk =   0.0937500
        k(    8) = (  -0.2500000   0.5000000  -0.2500000), wk =   0.0937500
        k(    9) = (   0.6250000  -0.3750000   0.6250000), wk =   0.0937500
        k(   10) = (   0.5000000  -0.2500000   0.5000000), wk =   0.0937500
        k(   11) = (   0.3750000  -0.1250000   0.3750000), wk =   0.0937500
        k(   12) = (   0.2500000   0.0000000   0.2500000), wk =   0.0468750
        k(   13) = (   0.0000000   0.5000000   0.0000000), wk =   0.0234375
        k(   14) = (  -0.1250000   0.6250000  -0.1250000), wk =   0.0937500
        k(   15) = (   0.7500000  -0.2500000   0.7500000), wk =   0.0937500
        k(   16) = (   0.6250000  -0.1250000   0.6250000), wk =   0.0937500
        k(   17) = (   0.5000000   0.0000000   0.5000000), wk =   0.0468750
        k(   18) = (   0.0000000   0.7500000   0.0000000), wk =   0.0234375
        k(   19) = (   0.8750000  -0.1250000   0.8750000), wk =   0.0937500
        k(   20) = (   0.7500000   0.0000000   0.7500000), wk =   0.0468750
        k(   21) = (   0.0000000  -1.0000000   0.0000000), wk =   0.0117188
        k(   22) = (  -0.2500000   0.5000000   0.0000000), wk =   0.0937500
        k(   23) = (   0.6250000  -0.3750000   0.8750000), wk =   0.1875000
        k(   24) = (   0.5000000  -0.2500000   0.7500000), wk =   0.0937500
        k(   25) = (   0.7500000  -0.2500000   1.0000000), wk =   0.0937500
        k(   26) = (   0.6250000  -0.1250000   0.8750000), wk =   0.1875000
        k(   27) = (   0.5000000   0.0000000   0.7500000), wk =   0.0937500
        k(   28) = (  -0.2500000  -1.0000000   0.0000000), wk =   0.0468750
        k(   29) = (  -0.5000000  -1.0000000   0.0000000), wk =   0.0234375

     Initial potential from superposition of free atoms

     starting charge       7.9990, renormalised to       8.0000
     Starting wfcs are    8 randomized atomic wfcs

     Self-consistent Calculation

     iteration #  1     ecut=    60.00 Ry     beta= 0.70
     Davidson diagonalization with overlap
     ethr =  1.00E-02,  avg # of iterations =  2.0

     Threshold (ethr) on eigenvalues was too large:
     Diagonalizing with lowered threshold

     Davidson diagonalization with overlap
     ethr =  5.13E-04,  avg # of iterations =  1.4

     total energy              =     -15.83140443 Ry
     estimated scf accuracy    <       0.04534993 Ry

[...]

     End of self-consistent calculation

          k = 0.0000 0.0000 0.0000 (  2445 PWs)   bands (ev):

    -6.3724   4.6189   4.6189   4.6189

          k =-0.1250 0.1250-0.1250 (  2475 PWs)   bands (ev):

[...]

     highest occupied level (ev):     4.6189

!    total energy              =     -15.83336026 Ry
     estimated scf accuracy    <          6.5E-10 Ry

     The total energy is the sum of the following terms:
     one-electron contribution =       3.58709710 Ry
     hartree contribution      =       1.22102962 Ry
     xc contribution           =      -4.64543766 Ry
     ewald contribution        =     -15.99604932 Ry

     convergence has been achieved in   7 iterations

     Forces acting on atoms (cartesian axes, Ry/au):

     atom    1 type  1   force =    -0.00000000    0.00000000   -0.00000000
     atom    2 type  1   force =     0.00000000   -0.00000000    0.00000000
     The non-local contrib.  to forces
     atom    1 type  1   force =     0.00000000   -0.00000000   -0.00000000
     atom    2 type  1   force =    -0.00000000   -0.00000000   -0.00000000
     The ionic contribution  to forces
     atom    1 type  1   force =    -0.00000000   -0.00000000   -0.00000000
     atom    2 type  1   force =     0.00000000    0.00000000    0.00000000
     The local contribution  to forces
     atom    1 type  1   force =    -0.00000000    0.00000000   -0.00000000
     atom    2 type  1   force =     0.00000000   -0.00000000   -0.00000000
     The core correction contribution to forces
     atom    1 type  1   force =     0.00000000    0.00000000    0.00000000
     atom    2 type  1   force =     0.00000000    0.00000000    0.00000000
     The Hubbard contrib.    to forces
     atom    1 type  1   force =     0.00000000    0.00000000    0.00000000
     atom    2 type  1   force =     0.00000000    0.00000000    0.00000000
     The SCF correction term to forces
     atom    1 type  1   force =    -0.00000000    0.00000000    0.00000000
     atom    2 type  1   force =     0.00000000    0.00000000   -0.00000000

     Total force =     0.000000     Total SCF correction =     0.000000

     Computing stress (Cartesian axis) and pressure

          total   stress  (Ry/bohr**3)                   (kbar)     P=     -108.38
  -0.00073677   0.00000000   0.00000000         -108.38        0.00        0.00
   0.00000000  -0.00073677   0.00000000            0.00     -108.38        0.00
   0.00000000   0.00000000  -0.00073677            0.00        0.00     -108.38

     BFGS Geometry Optimization
     Energy error            =      0.0E+00 Ry
     Gradient error          =      3.9E-33 Ry/Bohr
     Cell gradient error     =      1.1E+02 kbar

     number of scf cycles    =   1
     number of bfgs steps    =   0

     enthalpy           new  =     -15.8333602574 Ry

     new trust radius        =       0.0651592087 bohr
     new conv_thr            =       0.0000000100 Ry

     new unit-cell volume =    295.88422 a.u.^3 (    43.84552 Ang^3 )
     density =      2.12730 g/cm^3

CELL_PARAMETERS (alat= 10.77625694)
  -0.490790334   0.000000000   0.490790334
   0.000000000   0.490790334   0.490790334
  -0.490790334   0.490790334  -0.000000000

ATOMIC_POSITIONS (alat)
Si           -0.0000000000        0.0000000000       -0.0000000000
Si            0.2453951668        0.2453951668        0.2453951668

     Writing config-only to output data dir /home/paolo/project_labqsm/Silicon/SCRATCH/silicon.save/
     NEW-OLD atomic charge density approx. for the potential
     extrapolated charge    7.54119, renormalised to    8.00000

[...]

     Energy error            =      1.1E-02 Ry
     Gradient error          =      3.3E-32 Ry/Bohr
     Cell gradient error     =      8.0E+01 kbar

[...]

     enthalpy           old  =     -15.8333602574 Ry
     enthalpy           new  =     -15.8443495692 Ry

     CASE: enthalpy          _new < enthalpy          _old

[...]

     number of scf cycles    =   5
     number of bfgs steps    =   4

     enthalpy           old  =     -15.8533355835 Ry
     enthalpy           new  =     -15.8533499645 Ry

     CASE: enthalpy          _new < enthalpy          _old

     new trust radius        =       0.0001474294 bohr
     new conv_thr            =            1.0E-10 Ry

     new unit-cell volume =    265.92148 a.u.^3 (    39.40550 Ang^3 )
     density =      2.36699 g/cm^3

[...]

ATOMIC_POSITIONS (alat)
Si           -0.0000000000        0.0000000000       -0.0000000000
Si            0.2368153624        0.2368153624        0.2368153624

     Writing config-only to output data dir /home/paolo/project_labqsm/Silicon/SCRATCH/silicon.save/
     NEW-OLD atomic charge density approx. for the potential
     extrapolated charge    7.99892, renormalised to    8.00000

[...]

     Threshold (ethr) on eigenvalues was too large:
     Diagonalizing with lowered threshold

     Davidson diagonalization with overlap
     ethr =  7.13E-11,  avg # of iterations =  2.4

[...]

     Energy error            =      1.7E-08 Ry
     Gradient error          =      4.3E-32 Ry/Bohr
     Cell gradient error     =      1.4E-03 kbar

     bfgs converged in   6 scf cycles and   5 bfgs steps
     (criteria: energy <  1.0E-05 Ry, force <  1.0E-04 Ry/Bohr, cell <  5.0E-01 kbar)

     End of BFGS Geometry Optimization

     Final enthalpy           =     -15.8533499813 Ry

     File /home/paolo/project_labqsm/Silicon/SCRATCH/silicon.bfgs deleted, as requested
Begin final coordinates
     new unit-cell volume =    265.92148 a.u.^3 (    39.40550 Ang^3 )
     density =      2.36699 g/cm^3

CELL_PARAMETERS (alat= 10.77625694)
  -0.473630725  -0.000000000   0.473630725
   0.000000000   0.473630725   0.473630725
  -0.473630725   0.473630725  -0.000000000

ATOMIC_POSITIONS (alat)
Si           -0.0000000000        0.0000000000       -0.0000000000
Si            0.2368153624        0.2368153624        0.2368153624
End final coordinates

     Writing config-only to output data dir /home/paolo/project_labqsm/Silicon/SCRATCH/silicon.save/

     Final scf calculation at the relaxed structure.
     The G-vectors are recalculated for the final unit cell
     Results may differ from those at the preceding step.

     Using Slab Decomposition

     bravais-lattice index     =            2
     lattice parameter (alat)  =      10.7763  a.u.
     unit-cell volume          =     265.9215 (a.u.)^3
     number of atoms/cell      =            2
     number of atomic types    =            1
     number of electrons       =         8.00
     number of Kohn-Sham states=            4
     kinetic-energy cutoff     =      60.0000  Ry
     charge density cutoff     =     240.0000  Ry
     scf convergence threshold =      1.0E-10
     mixing beta               =       0.7000
     number of iterations used =            8  plain     mixing
     press convergence thresh. =      5.0E-01
     Exchange-correlation=  SLA  PZ   NOGX NOGC
                           (   1   1   0   0   0   0   0)

     celldm(1)=  10.776257  celldm(2)=   0.000000  celldm(3)=   0.000000
     celldm(4)=   0.000000  celldm(5)=   0.000000  celldm(6)=   0.000000

     crystal axes: (cart. coord. in units of alat)
               a(1) = (  -0.473631  -0.000000   0.473631 )
               a(2) = (   0.000000   0.473631   0.473631 )
               a(3) = (  -0.473631   0.473631  -0.000000 )

     reciprocal axes: (cart. coord. in units 2 pi/alat)
               b(1) = ( -1.055675 -1.055675  1.055675 )
               b(2) = (  1.055675  1.055675  1.055675 )
               b(3) = ( -1.055675  1.055675 -1.055675 )

     PseudoPot. # 1 for Si read from file:
     /home/paolo/project_labqsm/pseudopotentials/Si.pz-vbc.UPF
     MD5 check sum: dc3b11d017da532b29132e08c0a6883c
     Pseudo is Norm-conserving, Zval =  4.0
     Generated by new atomic code, or converted to UPF format
     Using radial grid of  431 points,  2 beta functions with:
                l(1) =   0
                l(2) =   1

     atomic species   valence    mass     pseudopotential
        Si             4.00    28.08500     Si( 1.00)

     48 Sym. Ops., with inversion, found (24 have fractional translation)

   Cartesian axes

     site n.     atom                  positions (alat units)
         1           Si  tau(   1) = (  -0.0000000   0.0000000  -0.0000000  )
         2           Si  tau(   2) = (   0.2368154   0.2368154   0.2368154  )

     number of k points=    29
                       cart. coord. in units 2pi/alat
        k(    1) = (   0.0000000   0.0000000   0.0000000), wk =   0.0039062
        k(    2) = (  -0.1319593   0.1319593  -0.1319593), wk =   0.0312500
        k(    3) = (  -0.2639187   0.2639187  -0.2639187), wk =   0.0312500
        k(    4) = (  -0.3958780   0.3958780  -0.3958780), wk =   0.0312500
        k(    5) = (   0.5278374  -0.5278374   0.5278374), wk =   0.0156250
        k(    6) = (   0.0000000   0.2639187   0.0000000), wk =   0.0234375
        k(    7) = (  -0.1319593   0.3958780  -0.1319593), wk =   0.0937500
        k(    8) = (  -0.2639187   0.5278374  -0.2639187), wk =   0.0937500
        k(    9) = (   0.6597967  -0.3958780   0.6597967), wk =   0.0937500
        k(   10) = (   0.5278374  -0.2639187   0.5278374), wk =   0.0937500
        k(   11) = (   0.3958780  -0.1319593   0.3958780), wk =   0.0937500
        k(   12) = (   0.2639187   0.0000000   0.2639187), wk =   0.0468750
        k(   13) = (   0.0000000   0.5278374   0.0000000), wk =   0.0234375
        k(   14) = (  -0.1319593   0.6597967  -0.1319593), wk =   0.0937500
        k(   15) = (   0.7917561  -0.2639187   0.7917561), wk =   0.0937500
        k(   16) = (   0.6597967  -0.1319593   0.6597967), wk =   0.0937500
        k(   17) = (   0.5278374   0.0000000   0.5278374), wk =   0.0468750
        k(   18) = (   0.0000000   0.7917561   0.0000000), wk =   0.0234375
        k(   19) = (   0.9237154  -0.1319593   0.9237154), wk =   0.0937500
        k(   20) = (   0.7917561   0.0000000   0.7917561), wk =   0.0468750
        k(   21) = (   0.0000000  -1.0556748   0.0000000), wk =   0.0117188
        k(   22) = (  -0.2639187   0.5278374  -0.0000000), wk =   0.0937500
        k(   23) = (   0.6597967  -0.3958780   0.9237154), wk =   0.1875000
        k(   24) = (   0.5278374  -0.2639187   0.7917561), wk =   0.0937500
        k(   25) = (   0.7917561  -0.2639187   1.0556748), wk =   0.0937500
        k(   26) = (   0.6597967  -0.1319593   0.9237154), wk =   0.1875000
        k(   27) = (   0.5278374   0.0000000   0.7917561), wk =   0.0937500
        k(   28) = (  -0.2639187  -1.0556748   0.0000000), wk =   0.0468750
        k(   29) = (  -0.5278374  -1.0556748   0.0000000), wk =   0.0234375

     Initial potential from superposition of free atoms

     starting charge       7.9990, renormalised to       8.0000
     Starting wfcs are    8 randomized atomic wfcs

     Self-consistent Calculation

[...]

     total energy              =     -15.85334362 Ry
     estimated scf accuracy    <          1.2E-09 Ry

     iteration #  7     ecut=    60.00 Ry     beta= 0.70
     Davidson diagonalization with overlap
     ethr =  1.49E-11,  avg # of iterations =  3.9

     End of self-consistent calculation

[...]

          k = 0.5278 0.0000 0.7918 (  2095 PWs)   bands (ev):

[...]

          k =-0.5278-1.0557 0.0000 (  2120 PWs)   bands (ev):

    -1.4498  -1.4498   2.2652   2.2652

     highest occupied level (ev):     6.2056

!    total energy              =     -15.85334362 Ry
     estimated scf accuracy    <          6.4E-12 Ry

     The total energy is the sum of the following terms:
     one-electron contribution =       4.76646878 Ry
     hartree contribution      =       1.08153339 Ry
     xc contribution           =      -4.81472033 Ry
     ewald contribution        =     -16.88662547 Ry

     convergence has been achieved in   7 iterations

     Forces acting on atoms (cartesian axes, Ry/au):

     atom    1 type  1   force =     0.00000000    0.00000000    0.00000000
     atom    2 type  1   force =     0.00000000    0.00000000    0.00000000
     The non-local contrib.  to forces
     atom    1 type  1   force =     0.00000000   -0.00000000    0.00000000
     atom    2 type  1   force =    -0.00000000    0.00000000    0.00000000
     The ionic contribution  to forces
     atom    1 type  1   force =     0.00000000    0.00000000    0.00000000
     atom    2 type  1   force =     0.00000000   -0.00000000   -0.00000000
     The local contribution  to forces
     atom    1 type  1   force =     0.00000000   -0.00000000   -0.00000000
     atom    2 type  1   force =     0.00000000    0.00000000    0.00000000
     The core correction contribution to forces
     atom    1 type  1   force =     0.00000000    0.00000000    0.00000000
     atom    2 type  1   force =     0.00000000    0.00000000    0.00000000
     The Hubbard contrib.    to forces
     atom    1 type  1   force =     0.00000000    0.00000000    0.00000000
     atom    2 type  1   force =     0.00000000    0.00000000    0.00000000
     The SCF correction term to forces
     atom    1 type  1   force =    -0.00000000    0.00000000    0.00000000
     atom    2 type  1   force =    -0.00000000   -0.00000000    0.00000000

     Total force =     0.000000     Total SCF correction =     0.000000

     Computing stress (Cartesian axis) and pressure

          total   stress  (Ry/bohr**3)                   (kbar)     P=       -0.04
  -0.00000027   0.00000000   0.00000000           -0.04        0.00        0.00
   0.00000000  -0.00000027  -0.00000000            0.00       -0.04       -0.00
   0.00000000  -0.00000000  -0.00000027            0.00       -0.00       -0.04

     Writing all to output data dir /home/paolo/project_labqsm/Silicon/SCRATCH/silicon.save/

     General routines

   This run was terminated on:  12:22:24  12May2024

   JOB DONE.