     Program PWSCF v.7.2 starts on 12May2024 at 11:15:20

     Waiting for input...
     Reading input from standard input

     Current dimensions of program PWSCF are:
     Max number of different atomic species (ntypx) = 10
     Max number of k-points (npk) =  40000
     Max angular momentum in pseudopotentials (lmaxx) =  4

     Using Slab Decomposition

     bravais-lattice index     =            2
     lattice parameter (alat)  =      10.7763  a.u.
     unit-cell volume          =     312.8555 (a.u.)^3
     number of atoms/cell      =            1
     number of atomic types    =            1
     number of electrons       =         4.00
     number of Kohn-Sham states=            2
     kinetic-energy cutoff     =      60.0000  Ry
     charge density cutoff     =     240.0000  Ry
     scf convergence threshold =      1.0E-08
     mixing beta               =       0.7000
     number of iterations used =            8  plain     mixing
     energy convergence thresh.=      1.0E-05
     force convergence thresh. =      1.0E-04
     press convergence thresh. =      5.0E-01
     Exchange-correlation=  SLA  PZ   NOGX NOGC
                           (   1   1   0   0   0   0   0)
     nstep                     =           50

     celldm(1)=  10.776257  celldm(2)=   0.000000  celldm(3)=   0.000000
     celldm(4)=   0.000000  celldm(5)=   0.000000  celldm(6)=   0.000000

     crystal axes: (cart. coord. in units of alat)
               a(1) = (  -0.500000   0.000000   0.500000 )
               a(2) = (   0.000000   0.500000   0.500000 )
               a(3) = (  -0.500000   0.500000   0.000000 )

     reciprocal axes: (cart. coord. in units 2 pi/alat)
               b(1) = ( -1.000000 -1.000000  1.000000 )
               b(2) = (  1.000000  1.000000  1.000000 )
               b(3) = ( -1.000000  1.000000 -1.000000 )

     PseudoPot. # 1 for Si read from file:
     /home/paolo/project_labqsm/pseudopotentials/Si.pz-vbc.UPF
     MD5 check sum: dc3b11d017da532b29132e08c0a6883c
     Pseudo is Norm-conserving, Zval =  4.0
     Generated by new atomic code, or converted to UPF format
     Using radial grid of  431 points,  2 beta functions with:
                l(1) =   0
                l(2) =   1

     atomic species   valence    mass     pseudopotential
        Si             4.00    12.01100     Si( 1.00)

     48 Sym. Ops., with inversion, found

   Cartesian axes

     site n.     atom                  positions (alat units)
         1           Si  tau(   1) = (   0.0000000   0.0000000   0.0000000  )

     number of k points=    29
                       cart. coord. in units 2pi/alat
        k(    1) = (   0.0000000   0.0000000   0.0000000), wk =   0.0039062
        k(    2) = (  -0.1250000   0.1250000  -0.1250000), wk =   0.0312500
        k(    3) = (  -0.2500000   0.2500000  -0.2500000), wk =   0.0312500
        k(    4) = (  -0.3750000   0.3750000  -0.3750000), wk =   0.0312500
        k(    5) = (   0.5000000  -0.5000000   0.5000000), wk =   0.0156250
        k(    6) = (   0.0000000   0.2500000   0.0000000), wk =   0.0234375
        k(    7) = (  -0.1250000   0.3750000  -0.1250000), wk =   0.0937500
        k(    8) = (  -0.2500000   0.5000000  -0.2500000), wk =   0.0937500
        k(    9) = (   0.6250000  -0.3750000   0.6250000), wk =   0.0937500
        k(   10) = (   0.5000000  -0.2500000   0.5000000), wk =   0.0937500
        k(   11) = (   0.3750000  -0.1250000   0.3750000), wk =   0.0937500
        k(   12) = (   0.2500000   0.0000000   0.2500000), wk =   0.0468750
        k(   13) = (   0.0000000   0.5000000   0.0000000), wk =   0.0234375
        k(   14) = (  -0.1250000   0.6250000  -0.1250000), wk =   0.0937500
        k(   15) = (   0.7500000  -0.2500000   0.7500000), wk =   0.0937500
        k(   16) = (   0.6250000  -0.1250000   0.6250000), wk =   0.0937500
        k(   17) = (   0.5000000   0.0000000   0.5000000), wk =   0.0468750
        k(   18) = (   0.0000000   0.7500000   0.0000000), wk =   0.0234375
        k(   19) = (   0.8750000  -0.1250000   0.8750000), wk =   0.0937500
        k(   20) = (   0.7500000   0.0000000   0.7500000), wk =   0.0468750
        k(   21) = (   0.0000000  -1.0000000   0.0000000), wk =   0.0117188
        k(   22) = (  -0.2500000   0.5000000   0.0000000), wk =   0.0937500
        k(   23) = (   0.6250000  -0.3750000   0.8750000), wk =   0.1875000
        k(   24) = (   0.5000000  -0.2500000   0.7500000), wk =   0.0937500
        k(   25) = (   0.7500000  -0.2500000   1.0000000), wk =   0.0937500
        k(   26) = (   0.6250000  -0.1250000   0.8750000), wk =   0.1875000
        k(   27) = (   0.5000000   0.0000000   0.7500000), wk =   0.0937500
        k(   28) = (  -0.2500000  -1.0000000   0.0000000), wk =   0.0468750
        k(   29) = (  -0.5000000  -1.0000000   0.0000000), wk =   0.0234375

     Initial potential from superposition of free atoms

     starting charge       3.9995, renormalised to       4.0000
     Starting wfcs are    4 randomized atomic wfcs

     Self-consistent Calculation

     iteration #  1     ecut=    60.00 Ry     beta= 0.70
     Davidson diagonalization with overlap
     ethr =  1.00E-02,  avg # of iterations =  1.0

     Threshold (ethr) on eigenvalues was too large:
     Diagonalizing with lowered threshold

     Davidson diagonalization with overlap
     ethr =  9.80E-05,  avg # of iterations =  2.7

     total energy              =      -7.67590092 Ry
     estimated scf accuracy    <       0.00435054 Ry

[...]

     End of self-consistent calculation

          k = 0.0000 0.0000 0.0000 (  2445 PWs)   bands (ev):

    -7.3229   3.0366

          k =-0.1250 0.1250-0.1250 (  2475 PWs)   bands (ev):

[...]

     highest occupied level (ev):     3.0366

!    total energy              =      -7.67630692 Ry
     estimated scf accuracy    <          1.5E-10 Ry

     The total energy is the sum of the following terms:
     one-electron contribution =       0.56862460 Ry
     hartree contribution      =       0.53479769 Ry
     xc contribution           =      -1.97237544 Ry
     ewald contribution        =      -6.80735376 Ry

     convergence has been achieved in   5 iterations

     Forces acting on atoms (cartesian axes, Ry/au):

     atom    1 type  1   force =     0.00000000    0.00000000    0.00000000
     The non-local contrib.  to forces
     atom    1 type  1   force =     0.00000000    0.00000000    0.00000000
     The ionic contribution  to forces
     atom    1 type  1   force =    -0.00000000   -0.00000000   -0.00000000
     The local contribution  to forces
     atom    1 type  1   force =     0.00000000   -0.00000000   -0.00000000
     The core correction contribution to forces
     atom    1 type  1   force =     0.00000000    0.00000000    0.00000000
     The Hubbard contrib.    to forces
     atom    1 type  1   force =     0.00000000    0.00000000    0.00000000
     The SCF correction term to forces
     atom    1 type  1   force =     0.00000000    0.00000000   -0.00000000

     Total force =     0.000000     Total SCF correction =     0.000000

     Computing stress (Cartesian axis) and pressure

          total   stress  (Ry/bohr**3)                   (kbar)     P=      -74.33
  -0.00050528  -0.00000000   0.00000000          -74.33       -0.00        0.00
   0.00000000  -0.00050528  -0.00000000            0.00      -74.33       -0.00
   0.00000000  -0.00000000  -0.00050528            0.00       -0.00      -74.33

     BFGS Geometry Optimization
     Energy error            =      0.0E+00 Ry
     Gradient error          =      0.0E+00 Ry/Bohr
     Cell gradient error     =      7.4E+01 kbar

     number of scf cycles    =   1
     number of bfgs steps    =   0

     enthalpy           new  =      -7.6763069176 Ry

     new trust radius        =       0.0446864074 bohr
     new conv_thr            =       0.0000000100 Ry

     new unit-cell volume =    301.14864 a.u.^3 (    44.62562 Ang^3 )
     density =      0.44693 g/cm^3

CELL_PARAMETERS (alat= 10.77625694)
  -0.493683979  -0.000000000   0.493683979
   0.000000000   0.493683979   0.493683979
  -0.493683979   0.493683979   0.000000000

ATOMIC_POSITIONS (alat)
Si            0.0000000000        0.0000000000        0.0000000000

     Writing config-only to output data dir ./SCRATCH/silicon.save/
     NEW-OLD atomic charge density approx. for the potential
     extrapolated charge    3.84452, renormalised to    4.00000

[...]

     Energy error            =      6.0E-03 Ry
     Gradient error          =      0.0E+00 Ry/Bohr
     Cell gradient error     =      7.6E+01 kbar

[...]

     enthalpy           old  =      -7.6763069176 Ry
     enthalpy           new  =      -7.6822913930 Ry

     CASE: enthalpy          _new < enthalpy          _old

     WARNING: bfgs curvature condition failed, Theta= 0.802
     new trust radius        =       0.0666049052 bohr
     new conv_thr            =            1.0E-10 Ry

[...]

     number of scf cycles    =   9
     number of bfgs steps    =   8

     enthalpy           old  =      -7.7499761359 Ry
     enthalpy           new  =      -7.7501853106 Ry

     CASE: enthalpy          _new < enthalpy          _old

     new trust radius        =       0.0044982554 bohr
     new conv_thr            =            1.0E-10 Ry

     new unit-cell volume =    147.68767 a.u.^3 (    21.88505 Ang^3 )
     density =      0.91134 g/cm^3

[...]

ATOMIC_POSITIONS (alat)
Si           -0.0000000000        0.0000000000        0.0000000000

     Writing config-only to output data dir ./SCRATCH/silicon.save/
     NEW-OLD atomic charge density approx. for the potential
     extrapolated charge    3.97777, renormalised to    4.00000

[...]

     Threshold (ethr) on eigenvalues was too large:
     Diagonalizing with lowered threshold

     Davidson diagonalization with overlap
     ethr =  3.68E-08,  avg # of iterations =  3.0

[...]

     Energy error            =      5.2E-06 Ry
     Gradient error          =      0.0E+00 Ry/Bohr
     Cell gradient error     =      7.5E-02 kbar

     bfgs converged in  10 scf cycles and   9 bfgs steps
     (criteria: energy <  1.0E-05 Ry, force <  1.0E-04 Ry/Bohr, cell <  5.0E-01 kbar)

     End of BFGS Geometry Optimization

     Final enthalpy           =      -7.7501904652 Ry

     File ./SCRATCH/silicon.bfgs deleted, as requested
Begin final coordinates
     new unit-cell volume =    147.68767 a.u.^3 (    21.88505 Ang^3 )
     density =      0.91134 g/cm^3

CELL_PARAMETERS (alat= 10.77625694)
  -0.389317095  -0.000000000   0.389317095
  -0.000000000   0.389317095   0.389317095
  -0.389317095   0.389317095   0.000000000

ATOMIC_POSITIONS (alat)
Si           -0.0000000000        0.0000000000        0.0000000000
End final coordinates

     Writing config-only to output data dir ./SCRATCH/silicon.save/

     Final scf calculation at the relaxed structure.
     The G-vectors are recalculated for the final unit cell
     Results may differ from those at the preceding step.

     Using Slab Decomposition

     bravais-lattice index     =            2
     lattice parameter (alat)  =      10.7763  a.u.
     unit-cell volume          =     147.6877 (a.u.)^3
     number of atoms/cell      =            1
     number of atomic types    =            1
     number of electrons       =         4.00
     number of Kohn-Sham states=            2
     kinetic-energy cutoff     =      60.0000  Ry
     charge density cutoff     =     240.0000  Ry
     scf convergence threshold =      1.0E-10
     mixing beta               =       0.7000
     number of iterations used =            8  plain     mixing
     press convergence thresh. =      5.0E-01
     Exchange-correlation=  SLA  PZ   NOGX NOGC
                           (   1   1   0   0   0   0   0)

     celldm(1)=  10.776257  celldm(2)=   0.000000  celldm(3)=   0.000000
     celldm(4)=   0.000000  celldm(5)=   0.000000  celldm(6)=   0.000000

     crystal axes: (cart. coord. in units of alat)
               a(1) = (  -0.389317  -0.000000   0.389317 )
               a(2) = (  -0.000000   0.389317   0.389317 )
               a(3) = (  -0.389317   0.389317   0.000000 )

     reciprocal axes: (cart. coord. in units 2 pi/alat)
               b(1) = ( -1.284300 -1.284300  1.284300 )
               b(2) = (  1.284300  1.284300  1.284300 )
               b(3) = ( -1.284300  1.284300 -1.284300 )

     PseudoPot. # 1 for Si read from file:
     /home/paolo/project_labqsm/pseudopotentials/Si.pz-vbc.UPF
     MD5 check sum: dc3b11d017da532b29132e08c0a6883c
     Pseudo is Norm-conserving, Zval =  4.0
     Generated by new atomic code, or converted to UPF format
     Using radial grid of  431 points,  2 beta functions with:
                l(1) =   0
                l(2) =   1

     atomic species   valence    mass     pseudopotential
        Si             4.00    12.01100     Si( 1.00)

     48 Sym. Ops., with inversion, found

   Cartesian axes

     site n.     atom                  positions (alat units)
         1           Si  tau(   1) = (  -0.0000000   0.0000000   0.0000000  )

     number of k points=    29
                       cart. coord. in units 2pi/alat
        k(    1) = (   0.0000000   0.0000000   0.0000000), wk =   0.0039062
        k(    2) = (  -0.1605375   0.1605375  -0.1605375), wk =   0.0312500
        k(    3) = (  -0.3210750   0.3210750  -0.3210750), wk =   0.0312500
        k(    4) = (  -0.4816126   0.4816126  -0.4816126), wk =   0.0312500
        k(    5) = (   0.6421501  -0.6421501   0.6421501), wk =   0.0156250
        k(    6) = (  -0.0000000   0.3210750  -0.0000000), wk =   0.0234375
        k(    7) = (  -0.1605375   0.4816126  -0.1605375), wk =   0.0937500
        k(    8) = (  -0.3210750   0.6421501  -0.3210750), wk =   0.0937500
        k(    9) = (   0.8026876  -0.4816126   0.8026876), wk =   0.0937500
        k(   10) = (   0.6421501  -0.3210750   0.6421501), wk =   0.0937500
        k(   11) = (   0.4816126  -0.1605375   0.4816126), wk =   0.0937500
        k(   12) = (   0.3210750   0.0000000   0.3210750), wk =   0.0468750
        k(   13) = (  -0.0000000   0.6421501  -0.0000000), wk =   0.0234375
        k(   14) = (  -0.1605375   0.8026876  -0.1605375), wk =   0.0937500
        k(   15) = (   0.9632251  -0.3210750   0.9632251), wk =   0.0937500
        k(   16) = (   0.8026876  -0.1605375   0.8026876), wk =   0.0937500
        k(   17) = (   0.6421501   0.0000000   0.6421501), wk =   0.0468750
        k(   18) = (  -0.0000000   0.9632251  -0.0000000), wk =   0.0234375
        k(   19) = (   1.1237626  -0.1605375   1.1237626), wk =   0.0937500
        k(   20) = (   0.9632251   0.0000000   0.9632251), wk =   0.0468750
        k(   21) = (   0.0000000  -1.2843001   0.0000000), wk =   0.0117188
        k(   22) = (  -0.3210750   0.6421501  -0.0000000), wk =   0.0937500
        k(   23) = (   0.8026876  -0.4816126   1.1237626), wk =   0.1875000
        k(   24) = (   0.6421501  -0.3210750   0.9632251), wk =   0.0937500
        k(   25) = (   0.9632251  -0.3210750   1.2843001), wk =   0.0937500
        k(   26) = (   0.8026876  -0.1605375   1.1237626), wk =   0.1875000
        k(   27) = (   0.6421501   0.0000000   0.9632251), wk =   0.0937500
        k(   28) = (  -0.3210750  -1.2843001   0.0000000), wk =   0.0468750
        k(   29) = (  -0.6421501  -1.2843001   0.0000000), wk =   0.0234375

     Initial potential from superposition of free atoms

     starting charge       3.9995, renormalised to       4.0000
     Starting wfcs are    4 randomized atomic wfcs

     Self-consistent Calculation

     iteration #  1     ecut=    60.00 Ry     beta= 0.70
     Davidson diagonalization with overlap
     c_bands:  1 eigenvalues not converged
     ethr =  1.00E-06,  avg # of iterations =  9.4

[...]

     iteration #  2     ecut=    60.00 Ry     beta= 0.70
     Davidson diagonalization with overlap
     ethr =  9.09E-06,  avg # of iterations =  1.4

[...]

     total energy              =      -7.75053140 Ry
     estimated scf accuracy    <          6.5E-10 Ry

     iteration #  5     ecut=    60.00 Ry     beta= 0.70
     Davidson diagonalization with overlap
     c_bands:  1 eigenvalues not converged
     ethr =  1.61E-11,  avg # of iterations =  5.5

     End of self-consistent calculation

[...]

          k = 0.6422 0.0000 0.9632 (  1162 PWs)   bands (ev):

[...]

          k =-0.6422-1.2843 0.0000 (  1144 PWs)   bands (ev):

     1.6071   3.9377

     highest occupied level (ev):    12.6835

!    total energy              =      -7.75053141 Ry
     estimated scf accuracy    <          8.1E-11 Ry

     The total energy is the sum of the following terms:
     one-electron contribution =       3.07020302 Ry
     hartree contribution      =       0.14585336 Ry
     xc contribution           =      -2.22390238 Ry
     ewald contribution        =      -8.74268540 Ry

     convergence has been achieved in   5 iterations

     Forces acting on atoms (cartesian axes, Ry/au):

     atom    1 type  1   force =     0.00000000    0.00000000    0.00000000
     The non-local contrib.  to forces
     atom    1 type  1   force =     0.00000000    0.00000000    0.00000000
     The ionic contribution  to forces
     atom    1 type  1   force =    -0.00000000   -0.00000000   -0.00000000
     The local contribution  to forces
     atom    1 type  1   force =    -0.00000000    0.00000000    0.00000000
     The core correction contribution to forces
     atom    1 type  1   force =     0.00000000    0.00000000    0.00000000
     The Hubbard contrib.    to forces
     atom    1 type  1   force =     0.00000000    0.00000000    0.00000000
     The SCF correction term to forces
     atom    1 type  1   force =    -0.00000000    0.00000000   -0.00000000

     Total force =     0.000000     Total SCF correction =     0.000000

     Computing stress (Cartesian axis) and pressure

          total   stress  (Ry/bohr**3)                   (kbar)     P=       -4.07
  -0.00002769  -0.00000000  -0.00000000           -4.07       -0.00       -0.00
   0.00000000  -0.00002769  -0.00000000            0.00       -4.07       -0.00
  -0.00000000  -0.00000000  -0.00002769           -0.00       -0.00       -4.07

     Writing all to output data dir ./SCRATCH/silicon.save/

     General routines

   This run was terminated on:  11:15:50  12May2024

   JOB DONE.