     Program PWSCF v.7.2 starts on 11Jun2024 at 11:27:11

     Waiting for input...
     Reading input from standard input

     Current dimensions of program PWSCF are:
     Max number of different atomic species (ntypx) = 10
     Max number of k-points (npk) =  40000
     Max angular momentum in pseudopotentials (lmaxx) =  4
     file Ga.pbe-dn-rrkjus_psl.0.2.UPF: wavefunction(s)  4S 3D renormalized

     Using Slab Decomposition

     bravais-lattice index     =            2
     lattice parameter (alat)  =      11.2170  a.u.
     unit-cell volume          =     352.8385 (a.u.)^3
     number of atoms/cell      =            2
     number of atomic types    =            2
     number of electrons       =        18.00
     number of Kohn-Sham states=            9
     kinetic-energy cutoff     =      40.0000  Ry
     charge density cutoff     =     400.0000  Ry
     scf convergence threshold =      1.0E-08
     mixing beta               =       0.7000
     number of iterations used =            8  plain     mixing
     energy convergence thresh.=      1.0E-05
     force convergence thresh. =      1.0E-04
     press convergence thresh. =      5.0E-01
     Exchange-correlation= PBE
                           (   1   4   3   4   0   0   0)
     nstep                     =           50

     celldm(1)=  11.217050  celldm(2)=   0.000000  celldm(3)=   0.000000
     celldm(4)=   0.000000  celldm(5)=   0.000000  celldm(6)=   0.000000

     crystal axes: (cart. coord. in units of alat)
               a(1) = (  -0.500000   0.000000   0.500000 )
               a(2) = (   0.000000   0.500000   0.500000 )
               a(3) = (  -0.500000   0.500000   0.000000 )

     reciprocal axes: (cart. coord. in units 2 pi/alat)
               b(1) = ( -1.000000 -1.000000  1.000000 )
               b(2) = (  1.000000  1.000000  1.000000 )
               b(3) = ( -1.000000  1.000000 -1.000000 )

     PseudoPot. # 1 for Ga read from file:
     /home/paolo/project_labqsm/pseudopotentials/Ga.pbe-dn-rrkjus_psl.0.2.UPF
     MD5 check sum: ffdfce4fe0c152725d7fa40f12f9e9e5
     Pseudo is Ultrasoft + core correction, Zval = 13.0
     Generated using "atomic" code by A. Dal Corso  v.5.0.2 svn rev. 9415
     Using radial grid of 1205 points,  6 beta functions with:
                l(1) =   0
                l(2) =   0
                l(3) =   1
                l(4) =   1
                l(5) =   2
                l(6) =   2
     Q(r) pseudized with 0 coefficients

     PseudoPot. # 2 for As read from file:
     /home/paolo/project_labqsm/pseudopotentials/As.pbe-n-rrkjus_psl.0.2.UPF
     MD5 check sum: f98050c7212d27f7cb33035312670de9
     Pseudo is Ultrasoft + core correction, Zval =  5.0
     Generated using "atomic" code by A. Dal Corso  v.5.0.2 svn rev. 9415
     Using radial grid of 1209 points,  4 beta functions with:
                l(1) =   0
                l(2) =   0
                l(3) =   1
                l(4) =   1
     Q(r) pseudized with 0 coefficients

     atomic species   valence    mass     pseudopotential
        Ga            13.00    69.72300     Ga( 1.00)
        As             5.00    74.92160     As( 1.00)

     24 Sym. Ops. (no inversion) found

   Cartesian axes

     site n.     atom                  positions (alat units)
         1           Ga  tau(   1) = (   0.0000000   0.0000000   0.0000000  )
         2           As  tau(   2) = (   0.2500000   0.2500000   0.2500000  )

     number of k points=    29
                       cart. coord. in units 2pi/alat
        k(    1) = (   0.0000000   0.0000000   0.0000000), wk =   0.0039062
        k(    2) = (  -0.1250000   0.1250000  -0.1250000), wk =   0.0312500
        k(    3) = (  -0.2500000   0.2500000  -0.2500000), wk =   0.0312500
        k(    4) = (  -0.3750000   0.3750000  -0.3750000), wk =   0.0312500
        k(    5) = (   0.5000000  -0.5000000   0.5000000), wk =   0.0156250
        k(    6) = (   0.0000000   0.2500000   0.0000000), wk =   0.0234375
        k(    7) = (  -0.1250000   0.3750000  -0.1250000), wk =   0.0937500
        k(    8) = (  -0.2500000   0.5000000  -0.2500000), wk =   0.0937500
        k(    9) = (   0.6250000  -0.3750000   0.6250000), wk =   0.0937500
        k(   10) = (   0.5000000  -0.2500000   0.5000000), wk =   0.0937500
        k(   11) = (   0.3750000  -0.1250000   0.3750000), wk =   0.0937500
        k(   12) = (   0.2500000   0.0000000   0.2500000), wk =   0.0468750
        k(   13) = (   0.0000000   0.5000000   0.0000000), wk =   0.0234375
        k(   14) = (  -0.1250000   0.6250000  -0.1250000), wk =   0.0937500
        k(   15) = (   0.7500000  -0.2500000   0.7500000), wk =   0.0937500
        k(   16) = (   0.6250000  -0.1250000   0.6250000), wk =   0.0937500
        k(   17) = (   0.5000000   0.0000000   0.5000000), wk =   0.0468750
        k(   18) = (   0.0000000   0.7500000   0.0000000), wk =   0.0234375
        k(   19) = (   0.8750000  -0.1250000   0.8750000), wk =   0.0937500
        k(   20) = (   0.7500000   0.0000000   0.7500000), wk =   0.0468750
        k(   21) = (   0.0000000  -1.0000000   0.0000000), wk =   0.0117188
        k(   22) = (  -0.2500000   0.5000000   0.0000000), wk =   0.0937500
        k(   23) = (   0.6250000  -0.3750000   0.8750000), wk =   0.1875000
        k(   24) = (   0.5000000  -0.2500000   0.7500000), wk =   0.0937500
        k(   25) = (   0.7500000  -0.2500000   1.0000000), wk =   0.0937500
        k(   26) = (   0.6250000  -0.1250000   0.8750000), wk =   0.1875000
        k(   27) = (   0.5000000   0.0000000   0.7500000), wk =   0.0937500
        k(   28) = (  -0.2500000  -1.0000000   0.0000000), wk =   0.0468750
        k(   29) = (  -0.5000000  -1.0000000   0.0000000), wk =   0.0234375

     Initial potential from superposition of free atoms

     starting charge      17.9968, renormalised to      18.0000
     Starting wfcs are   13 randomized atomic wfcs

     Self-consistent Calculation

     iteration #  1     ecut=    40.00 Ry     beta= 0.70
     Davidson diagonalization with overlap
     ethr =  1.00E-02,  avg # of iterations =  1.2

     Threshold (ethr) on eigenvalues was too large:
     Diagonalizing with lowered threshold

     Davidson diagonalization with overlap
     ethr =  2.61E-04,  avg # of iterations =  2.0

     total energy              =    -191.00556707 Ry
     estimated scf accuracy    <       0.04635125 Ry

[...]

     End of self-consistent calculation

          k = 0.0000 0.0000 0.0000 (  1459 PWs)   bands (ev):

    -9.4708  -9.4708  -9.4708  -9.4217  -9.4217  -6.6556   4.6114   5.1250
     5.1250

          k =-0.1250 0.1250-0.1250 (  1480 PWs)   bands (ev):

[...]

     highest occupied level (ev):     5.1250

!    total energy              =    -191.01801696 Ry
     estimated scf accuracy    <          6.3E-09 Ry

     The total energy is the sum of the following terms:
     one-electron contribution =    -118.93962225 Ry
     hartree contribution      =      74.28838155 Ry
     xc contribution           =     -57.77708954 Ry
     ewald contribution        =     -88.58968672 Ry

     convergence has been achieved in  12 iterations

     Forces acting on atoms (cartesian axes, Ry/au):

     atom    1 type  1   force =     0.00000000    0.00000000    0.00000000
     atom    2 type  2   force =    -0.00000000   -0.00000000    0.00000000
     The non-local contrib.  to forces
     atom    1 type  1   force =    -0.00000000    0.00000000   -0.00000000
     atom    2 type  2   force =    -0.00000000   -0.00000000   -0.00000000
     The ionic contribution  to forces
     atom    1 type  1   force =    -0.00000000   -0.00000000   -0.00000000
     atom    2 type  2   force =     0.00000000    0.00000000    0.00000000
     The local contribution  to forces
     atom    1 type  1   force =    -0.00000000    0.00000000    0.00000000
     atom    2 type  2   force =    -0.00000000    0.00000000    0.00000000
     The core correction contribution to forces
     atom    1 type  1   force =    -0.00000000    0.00000000    0.00000000
     atom    2 type  2   force =    -0.00000000    0.00000000   -0.00000000
     The Hubbard contrib.    to forces
     atom    1 type  1   force =     0.00000000    0.00000000    0.00000000
     atom    2 type  2   force =     0.00000000    0.00000000    0.00000000
     The SCF correction term to forces
     atom    1 type  1   force =     0.00000000    0.00000000   -0.00000000
     atom    2 type  2   force =    -0.00000000   -0.00000000    0.00000000

     Total force =     0.000000     Total SCF correction =     0.000000

     Computing stress (Cartesian axis) and pressure

          total   stress  (Ry/bohr**3)                   (kbar)     P=      -48.78
  -0.00033161   0.00000000  -0.00000000          -48.78        0.00       -0.00
   0.00000000  -0.00033161  -0.00000000            0.00      -48.78       -0.00
   0.00000000   0.00000000  -0.00033161            0.00        0.00      -48.78

     BFGS Geometry Optimization
     Energy error            =      0.0E+00 Ry
     Gradient error          =      2.5E-32 Ry/Bohr
     Cell gradient error     =      4.9E+01 kbar

     number of scf cycles    =   1
     number of bfgs steps    =   0

     enthalpy           new  =    -191.0180169623 Ry

     new trust radius        =       0.0311449304 bohr
     new conv_thr            =       0.0000000100 Ry

     new unit-cell volume =    344.13563 a.u.^3 (    50.99564 Ang^3 )
     density =      4.70997 g/cm^3

CELL_PARAMETERS (alat= 11.21704970)
  -0.495854858  -0.000000000   0.495854858
   0.000000000   0.495854858   0.495854858
  -0.495854858   0.495854858  -0.000000000

ATOMIC_POSITIONS (alat)
Ga            0.0000000000        0.0000000000        0.0000000000
As            0.2479274290        0.2479274290        0.2479274290

     Writing config-only to output data dir /home/paolo/project_labqsm/GaAs/SCRATCH/gallium_arsenide.save/
     NEW-OLD atomic charge density approx. for the potential
     extrapolated charge   17.54488, renormalised to   18.00000

[...]

     Energy error            =      2.6E-03 Ry
     Gradient error          =      9.1E-32 Ry/Bohr
     Cell gradient error     =      4.0E+01 kbar

[...]

     enthalpy           old  =    -191.0180169623 Ry
     enthalpy           new  =    -191.0206493003 Ry

     CASE: enthalpy          _new < enthalpy          _old

     WARNING: bfgs curvature condition failed, Theta= 0.996
     new trust radius        =       0.0465233424 bohr
     new conv_thr            =            1.0E-10 Ry

[...]

     number of scf cycles    =   4
     number of bfgs steps    =   3

     enthalpy           old  =    -191.0233229059 Ry
     enthalpy           new  =    -191.0242785036 Ry

     CASE: enthalpy          _new < enthalpy          _old

     new trust radius        =       0.0046328744 bohr
     new conv_thr            =            1.0E-10 Ry

     new unit-cell volume =    318.88828 a.u.^3 (    47.25437 Ang^3 )
     density =      5.08287 g/cm^3

[...]

ATOMIC_POSITIONS (alat)
Ga           -0.0000000000        0.0000000000       -0.0000000000
As            0.2417097745        0.2417097745        0.2417097745

     Writing config-only to output data dir /home/paolo/project_labqsm/GaAs/SCRATCH/gallium_arsenide.save/
     NEW-OLD atomic charge density approx. for the potential
     extrapolated charge   18.06999, renormalised to   18.00000

[...]

     Energy error            =      9.1E-06 Ry
     Gradient error          =      1.1E-31 Ry/Bohr
     Cell gradient error     =      1.7E-01 kbar

     bfgs converged in   5 scf cycles and   4 bfgs steps
     (criteria: energy <  1.0E-05 Ry, force <  1.0E-04 Ry/Bohr, cell <  5.0E-01 kbar)

     End of BFGS Geometry Optimization

     Final enthalpy           =    -191.0242875966 Ry

     File /home/paolo/project_labqsm/GaAs/SCRATCH/gallium_arsenide.bfgs deleted, as requested
Begin final coordinates
     new unit-cell volume =    318.88828 a.u.^3 (    47.25437 Ang^3 )
     density =      5.08287 g/cm^3

CELL_PARAMETERS (alat= 11.21704970)
  -0.483419549  -0.000000000   0.483419549
   0.000000000   0.483419549   0.483419549
  -0.483419549   0.483419549  -0.000000000

ATOMIC_POSITIONS (alat)
Ga           -0.0000000000        0.0000000000       -0.0000000000
As            0.2417097745        0.2417097745        0.2417097745
End final coordinates

     Writing config-only to output data dir /home/paolo/project_labqsm/GaAs/SCRATCH/gallium_arsenide.save/

     Final scf calculation at the relaxed structure.
     The G-vectors are recalculated for the final unit cell
     Results may differ from those at the preceding step.

     Using Slab Decomposition

     bravais-lattice index     =            2
     lattice parameter (alat)  =      11.2170  a.u.
     unit-cell volume          =     318.8883 (a.u.)^3
     number of atoms/cell      =            2
     number of atomic types    =            2
     number of electrons       =        18.00
     number of Kohn-Sham states=            9
     kinetic-energy cutoff     =      40.0000  Ry
     charge density cutoff     =     400.0000  Ry
     scf convergence threshold =      1.0E-10
     mixing beta               =       0.7000
     number of iterations used =            8  plain     mixing
     press convergence thresh. =      5.0E-01
     Exchange-correlation= PBE
                           (   1   4   3   4   0   0   0)

     celldm(1)=  11.217050  celldm(2)=   0.000000  celldm(3)=   0.000000
     celldm(4)=   0.000000  celldm(5)=   0.000000  celldm(6)=   0.000000

     crystal axes: (cart. coord. in units of alat)
               a(1) = (  -0.483420  -0.000000   0.483420 )
               a(2) = (   0.000000   0.483420   0.483420 )
               a(3) = (  -0.483420   0.483420  -0.000000 )

     reciprocal axes: (cart. coord. in units 2 pi/alat)
               b(1) = ( -1.034298 -1.034298  1.034298 )
               b(2) = (  1.034298  1.034298  1.034298 )
               b(3) = ( -1.034298  1.034298 -1.034298 )

     PseudoPot. # 1 for Ga read from file:
     /home/paolo/project_labqsm/pseudopotentials/Ga.pbe-dn-rrkjus_psl.0.2.UPF
     MD5 check sum: ffdfce4fe0c152725d7fa40f12f9e9e5
     Pseudo is Ultrasoft + core correction, Zval = 13.0
     Generated using "atomic" code by A. Dal Corso  v.5.0.2 svn rev. 9415
     Using radial grid of 1205 points,  6 beta functions with:
                l(1) =   0
                l(2) =   0
                l(3) =   1
                l(4) =   1
                l(5) =   2
                l(6) =   2
     Q(r) pseudized with 0 coefficients

     PseudoPot. # 2 for As read from file:
     /home/paolo/project_labqsm/pseudopotentials/As.pbe-n-rrkjus_psl.0.2.UPF
     MD5 check sum: f98050c7212d27f7cb33035312670de9
     Pseudo is Ultrasoft + core correction, Zval =  5.0
     Generated using "atomic" code by A. Dal Corso  v.5.0.2 svn rev. 9415
     Using radial grid of 1209 points,  4 beta functions with:
                l(1) =   0
                l(2) =   0
                l(3) =   1
                l(4) =   1
     Q(r) pseudized with 0 coefficients

     atomic species   valence    mass     pseudopotential
        Ga            13.00    69.72300     Ga( 1.00)
        As             5.00    74.92160     As( 1.00)

     24 Sym. Ops. (no inversion) found

   Cartesian axes

     site n.     atom                  positions (alat units)
         1           Ga  tau(   1) = (  -0.0000000   0.0000000  -0.0000000  )
         2           As  tau(   2) = (   0.2417098   0.2417098   0.2417098  )

     number of k points=    29
                       cart. coord. in units 2pi/alat
        k(    1) = (   0.0000000   0.0000000   0.0000000), wk =   0.0039062
        k(    2) = (  -0.1292873   0.1292873  -0.1292873), wk =   0.0312500
        k(    3) = (  -0.2585746   0.2585746  -0.2585746), wk =   0.0312500
        k(    4) = (  -0.3878618   0.3878618  -0.3878618), wk =   0.0312500
        k(    5) = (   0.5171491  -0.5171491   0.5171491), wk =   0.0156250
        k(    6) = (   0.0000000   0.2585746   0.0000000), wk =   0.0234375
        k(    7) = (  -0.1292873   0.3878618  -0.1292873), wk =   0.0937500
        k(    8) = (  -0.2585746   0.5171491  -0.2585746), wk =   0.0937500
        k(    9) = (   0.6464364  -0.3878618   0.6464364), wk =   0.0937500
        k(   10) = (   0.5171491  -0.2585746   0.5171491), wk =   0.0937500
        k(   11) = (   0.3878618  -0.1292873   0.3878618), wk =   0.0937500
        k(   12) = (   0.2585746   0.0000000   0.2585746), wk =   0.0468750
        k(   13) = (   0.0000000   0.5171491   0.0000000), wk =   0.0234375
        k(   14) = (  -0.1292873   0.6464364  -0.1292873), wk =   0.0937500
        k(   15) = (   0.7757237  -0.2585746   0.7757237), wk =   0.0937500
        k(   16) = (   0.6464364  -0.1292873   0.6464364), wk =   0.0937500
        k(   17) = (   0.5171491   0.0000000   0.5171491), wk =   0.0468750
        k(   18) = (   0.0000000   0.7757237   0.0000000), wk =   0.0234375
        k(   19) = (   0.9050110  -0.1292873   0.9050110), wk =   0.0937500
        k(   20) = (   0.7757237   0.0000000   0.7757237), wk =   0.0468750
        k(   21) = (   0.0000000  -1.0342983   0.0000000), wk =   0.0117188
        k(   22) = (  -0.2585746   0.5171491   0.0000000), wk =   0.0937500
        k(   23) = (   0.6464364  -0.3878618   0.9050110), wk =   0.1875000
        k(   24) = (   0.5171491  -0.2585746   0.7757237), wk =   0.0937500
        k(   25) = (   0.7757237  -0.2585746   1.0342983), wk =   0.0937500
        k(   26) = (   0.6464364  -0.1292873   0.9050110), wk =   0.1875000
        k(   27) = (   0.5171491   0.0000000   0.7757237), wk =   0.0937500
        k(   28) = (  -0.2585746  -1.0342983   0.0000000), wk =   0.0468750
        k(   29) = (  -0.5171491  -1.0342983   0.0000000), wk =   0.0234375

     Initial potential from superposition of free atoms

     starting charge      17.9968, renormalised to      18.0000
     Starting wfcs are   13 randomized atomic wfcs

     Self-consistent Calculation

[...]

     total energy              =    -191.02334005 Ry
     estimated scf accuracy    <          2.5E-10 Ry

     iteration # 10     ecut=    40.00 Ry     beta= 0.70
     Davidson diagonalization with overlap
     ethr =  1.37E-12,  avg # of iterations =  6.4

     End of self-consistent calculation

[...]

          k = 0.5171 0.0000 0.7757 (  1357 PWs)   bands (ev):

[...]

          k =-0.5171-1.0343 0.0000 (  1348 PWs)   bands (ev):

    -8.5663  -8.4578  -8.4451  -8.4244  -8.4109  -3.8230  -0.2149   2.9071
     3.0911

     highest occupied level (ev):     6.2397

!    total energy              =    -191.02334005 Ry
     estimated scf accuracy    <          6.9E-11 Ry

     The total energy is the sum of the following terms:
     one-electron contribution =    -114.01883523 Ry
     hartree contribution      =      72.49667078 Ry
     xc contribution           =     -57.87301648 Ry
     ewald contribution        =     -91.62815912 Ry

     convergence has been achieved in  10 iterations

     Forces acting on atoms (cartesian axes, Ry/au):

     atom    1 type  1   force =     0.00000000    0.00000000    0.00000000
     atom    2 type  2   force =    -0.00000000   -0.00000000   -0.00000000
     The non-local contrib.  to forces
     atom    1 type  1   force =     0.00000000   -0.00000000    0.00000000
     atom    2 type  2   force =     0.00000000   -0.00000000    0.00000000
     The ionic contribution  to forces
     atom    1 type  1   force =     0.00000000   -0.00000000    0.00000000
     atom    2 type  2   force =     0.00000000   -0.00000000   -0.00000000
     The local contribution  to forces
     atom    1 type  1   force =    -0.00000000   -0.00000000    0.00000000
     atom    2 type  2   force =     0.00000000    0.00000000   -0.00000000
     The core correction contribution to forces
     atom    1 type  1   force =     0.00000000   -0.00000000   -0.00000000
     atom    2 type  2   force =    -0.00000000   -0.00000000    0.00000000
     The Hubbard contrib.    to forces
     atom    1 type  1   force =     0.00000000    0.00000000    0.00000000
     atom    2 type  2   force =     0.00000000    0.00000000    0.00000000
     The SCF correction term to forces
     atom    1 type  1   force =     0.00000000    0.00000000   -0.00000000
     atom    2 type  2   force =    -0.00000000    0.00000000    0.00000000

     Total force =     0.000000     Total SCF correction =     0.000000

     Computing stress (Cartesian axis) and pressure

          total   stress  (Ry/bohr**3)                   (kbar)     P=       -0.23
  -0.00000157   0.00000000   0.00000000           -0.23        0.00        0.00
  -0.00000000  -0.00000157   0.00000000           -0.00       -0.23        0.00
   0.00000000   0.00000000  -0.00000157            0.00        0.00       -0.23

     Writing all to output data dir /home/paolo/project_labqsm/GaAs/SCRATCH/gallium_arsenide.save/

     General routines

   This run was terminated on:  11:30: 4  11Jun2024

   JOB DONE.