     Program PWSCF v.7.2 starts on 25May2024 at 12:21: 8

     Waiting for input...
     Reading input from standard input

     Current dimensions of program PWSCF are:
     Max number of different atomic species (ntypx) = 10
     Max number of k-points (npk) =  40000
     Max angular momentum in pseudopotentials (lmaxx) =  4

     Using Slab Decomposition

     bravais-lattice index     =            2
     lattice parameter (alat)  =      11.2170  a.u.
     unit-cell volume          =     352.8385 (a.u.)^3
     number of atoms/cell      =            2
     number of atomic types    =            2
     number of electrons       =         8.00
     number of Kohn-Sham states=            4
     kinetic-energy cutoff     =      60.0000  Ry
     charge density cutoff     =     240.0000  Ry
     scf convergence threshold =      1.0E-08
     mixing beta               =       0.7000
     number of iterations used =            8  plain     mixing
     energy convergence thresh.=      1.0E-05
     force convergence thresh. =      1.0E-04
     press convergence thresh. =      5.0E-01
     Exchange-correlation= SLA  PZ   NOGX NOGC
                           (   1   1   0   0   0   0   0)
     nstep                     =           50

     celldm(1)=  11.217050  celldm(2)=   0.000000  celldm(3)=   0.000000
     celldm(4)=   0.000000  celldm(5)=   0.000000  celldm(6)=   0.000000

     crystal axes: (cart. coord. in units of alat)
               a(1) = (  -0.500000   0.000000   0.500000 )
               a(2) = (   0.000000   0.500000   0.500000 )
               a(3) = (  -0.500000   0.500000   0.000000 )

     reciprocal axes: (cart. coord. in units 2 pi/alat)
               b(1) = ( -1.000000 -1.000000  1.000000 )
               b(2) = (  1.000000  1.000000  1.000000 )
               b(3) = ( -1.000000  1.000000 -1.000000 )

     PseudoPot. # 1 for Ga read from file:
     /home/paolo/project_labqsm/pseudopotentials/Ga.pz-bhs.UPF
     MD5 check sum: 09b06f4702dea281feaf053846378b49
     Pseudo is Norm-conserving, Zval =  3.0
     Generated by new atomic code, or converted to UPF format
     Using radial grid of  523 points,  2 beta functions with:
                l(1) =   0
                l(2) =   1

     PseudoPot. # 2 for As read from file:
     /home/paolo/project_labqsm/pseudopotentials/As.pz-bhs.UPF
     MD5 check sum: d67708448008dff3ec15a9356ed645c7
     Pseudo is Norm-conserving, Zval =  5.0
     Generated by new atomic code, or converted to UPF format
     Using radial grid of  525 points,  2 beta functions with:
                l(1) =   0
                l(2) =   1

     atomic species   valence    mass     pseudopotential
        Ga             3.00    69.72300     Ga( 1.00)
        As             5.00    74.92200     As( 1.00)

     24 Sym. Ops. (no inversion) found

   Cartesian axes

     site n.     atom                  positions (alat units)
         1           Ga  tau(   1) = (   0.0000000   0.0000000   0.0000000  )
         2           As  tau(   2) = (   0.2500000   0.2500000   0.2500000  )

     number of k points=    29
                       cart. coord. in units 2pi/alat
        k(    1) = (   0.0000000   0.0000000   0.0000000), wk =   0.0039062
        k(    2) = (  -0.1250000   0.1250000  -0.1250000), wk =   0.0312500
        k(    3) = (  -0.2500000   0.2500000  -0.2500000), wk =   0.0312500
        k(    4) = (  -0.3750000   0.3750000  -0.3750000), wk =   0.0312500
        k(    5) = (   0.5000000  -0.5000000   0.5000000), wk =   0.0156250
        k(    6) = (   0.0000000   0.2500000   0.0000000), wk =   0.0234375
        k(    7) = (  -0.1250000   0.3750000  -0.1250000), wk =   0.0937500
        k(    8) = (  -0.2500000   0.5000000  -0.2500000), wk =   0.0937500
        k(    9) = (   0.6250000  -0.3750000   0.6250000), wk =   0.0937500
        k(   10) = (   0.5000000  -0.2500000   0.5000000), wk =   0.0937500
        k(   11) = (   0.3750000  -0.1250000   0.3750000), wk =   0.0937500
        k(   12) = (   0.2500000   0.0000000   0.2500000), wk =   0.0468750
        k(   13) = (   0.0000000   0.5000000   0.0000000), wk =   0.0234375
        k(   14) = (  -0.1250000   0.6250000  -0.1250000), wk =   0.0937500
        k(   15) = (   0.7500000  -0.2500000   0.7500000), wk =   0.0937500
        k(   16) = (   0.6250000  -0.1250000   0.6250000), wk =   0.0937500
        k(   17) = (   0.5000000   0.0000000   0.5000000), wk =   0.0468750
        k(   18) = (   0.0000000   0.7500000   0.0000000), wk =   0.0234375
        k(   19) = (   0.8750000  -0.1250000   0.8750000), wk =   0.0937500
        k(   20) = (   0.7500000   0.0000000   0.7500000), wk =   0.0468750
        k(   21) = (   0.0000000  -1.0000000   0.0000000), wk =   0.0117188
        k(   22) = (  -0.2500000   0.5000000   0.0000000), wk =   0.0937500
        k(   23) = (   0.6250000  -0.3750000   0.8750000), wk =   0.1875000
        k(   24) = (   0.5000000  -0.2500000   0.7500000), wk =   0.0937500
        k(   25) = (   0.7500000  -0.2500000   1.0000000), wk =   0.0937500
        k(   26) = (   0.6250000  -0.1250000   0.8750000), wk =   0.1875000
        k(   27) = (   0.5000000   0.0000000   0.7500000), wk =   0.0937500
        k(   28) = (  -0.2500000  -1.0000000   0.0000000), wk =   0.0468750
        k(   29) = (  -0.5000000  -1.0000000   0.0000000), wk =   0.0234375

     Initial potential from superposition of free atoms

     starting charge       7.9979, renormalised to       8.0000
     Starting wfcs are    8 randomized atomic wfcs

     Self-consistent Calculation

     iteration #  1     ecut=    60.00 Ry     beta= 0.70
     Davidson diagonalization with overlap
     ethr =  1.00E-02,  avg # of iterations =  1.2

     Threshold (ethr) on eigenvalues was too large:
     Diagonalizing with lowered threshold

     Davidson diagonalization with overlap
     ethr =  4.35E-04,  avg # of iterations =  3.2

     total energy              =     -17.29347219 Ry
     estimated scf accuracy    <       0.03718931 Ry

[...]

     End of self-consistent calculation

          k = 0.0000 0.0000 0.0000 (  2733 PWs)   bands (ev):

    -8.3462   2.8925   3.2411   3.2411

          k =-0.1250 0.1250-0.1250 (  2755 PWs)   bands (ev):

[...]

     highest occupied level (ev):     3.2411

!    total energy              =     -17.30081785 Ry
     estimated scf accuracy    <          8.4E-09 Ry

     The total energy is the sum of the following terms:
     one-electron contribution =       1.62796773 Ry
     hartree contribution      =       1.75179596 Ry
     xc contribution           =      -4.63862804 Ry
     ewald contribution        =     -16.04195350 Ry

     convergence has been achieved in  20 iterations

     Forces acting on atoms (cartesian axes, Ry/au):

     atom    1 type  1   force =     0.00000000    0.00000000    0.00000000
     atom    2 type  2   force =     0.00000000    0.00000000   -0.00000000
     The non-local contrib.  to forces
     atom    1 type  1   force =     0.00000000   -0.00000000    0.00000000
     atom    2 type  2   force =     0.00000000    0.00000000   -0.00000000
     The ionic contribution  to forces
     atom    1 type  1   force =    -0.00000000   -0.00000000   -0.00000000
     atom    2 type  2   force =    -0.00000000   -0.00000000   -0.00000000
     The local contribution  to forces
     atom    1 type  1   force =    -0.00000000    0.00000000    0.00000000
     atom    2 type  2   force =     0.00000000    0.00000000    0.00000000
     The core correction contribution to forces
     atom    1 type  1   force =     0.00000000    0.00000000    0.00000000
     atom    2 type  2   force =     0.00000000    0.00000000    0.00000000
     The Hubbard contrib.    to forces
     atom    1 type  1   force =     0.00000000    0.00000000    0.00000000
     atom    2 type  2   force =     0.00000000    0.00000000    0.00000000
     The SCF correction term to forces
     atom    1 type  1   force =    -0.00000000   -0.00000000    0.00000000
     atom    2 type  2   force =    -0.00000000   -0.00000000    0.00000000

     Total force =     0.000000     Total SCF correction =     0.000000

     Computing stress (Cartesian axis) and pressure

          total   stress  (Ry/bohr**3)                   (kbar)     P=      -96.35
  -0.00065499   0.00000000   0.00000000          -96.35        0.00        0.00
   0.00000000  -0.00065499  -0.00000000            0.00      -96.35       -0.00
   0.00000000  -0.00000000  -0.00065499            0.00       -0.00      -96.35

     BFGS Geometry Optimization
     Energy error            =      0.0E+00 Ry
     Gradient error          =      1.3E-34 Ry/Bohr
     Cell gradient error     =      9.6E+01 kbar

     number of scf cycles    =   1
     number of bfgs steps    =   0

     enthalpy           new  =     -17.3008178471 Ry

     new trust radius        =       0.0615165724 bohr
     new conv_thr            =       0.0000000100 Ry

     new unit-cell volume =    335.78785 a.u.^3 (    49.75863 Ang^3 )
     density =      4.82708 g/cm^3

CELL_PARAMETERS (alat= 11.21704970)
  -0.491812635  -0.000000000   0.491812635
   0.000000000   0.491812635   0.491812635
  -0.491812635   0.491812635  -0.000000000

ATOMIC_POSITIONS (alat)
Ga            0.0000000000        0.0000000000        0.0000000000
As            0.2459063174        0.2459063174        0.2459063174

     Writing config-only to output data dir /home/paolo/project_labqsm/Silicon/SCRATCH/gallium_arsenide.save/
     NEW-OLD atomic charge density approx. for the potential
     extrapolated charge    7.59388, renormalised to    8.00000

[...]

     iteration # 15     ecut=    60.00 Ry     beta= 0.70
     Davidson diagonalization with overlap
     c_bands:  1 eigenvalues not converged
     ethr =  4.93E-10,  avg # of iterations = 12.3

[...]

     Energy error            =      1.0E-02 Ry
     Gradient error          =      3.3E-32 Ry/Bohr
     Cell gradient error     =      8.2E+01 kbar

[...]

     enthalpy           old  =     -17.3008178471 Ry
     enthalpy           new  =     -17.3111871662 Ry

     CASE: enthalpy          _new < enthalpy          _old

     WARNING: bfgs curvature condition failed, Theta= 0.976
     new trust radius        =       0.0915162523 bohr
     new conv_thr            =            1.0E-10 Ry

[...]

     iteration # 20     ecut=    60.00 Ry     beta= 0.70
     Davidson diagonalization with overlap
     c_bands:  1 eigenvalues not converged
     ethr =  6.95E-11,  avg # of iterations =  8.4

[...]

     number of scf cycles    =   6
     number of bfgs steps    =   5

     enthalpy           old  =     -17.3267235350 Ry
     enthalpy           new  =     -17.3267378195 Ry

     CASE: enthalpy          _new < enthalpy          _old

     new trust radius        =       0.0002558955 bohr
     new conv_thr            =            1.0E-10 Ry

     new unit-cell volume =    287.90587 a.u.^3 (    42.66325 Ang^3 )
     density =      5.62987 g/cm^3

[...]

ATOMIC_POSITIONS (alat)
Ga           -0.0000000000       -0.0000000000       -0.0000000000
As            0.2336136439        0.2336136439        0.2336136439

     Writing config-only to output data dir /home/paolo/project_labqsm/Silicon/SCRATCH/gallium_arsenide.save/
     NEW-OLD atomic charge density approx. for the potential
     extrapolated charge    7.99819, renormalised to    8.00000

[...]

     Threshold (ethr) on eigenvalues was too large:
     Diagonalizing with lowered threshold

     Davidson diagonalization with overlap
     ethr =  4.47E-10,  avg # of iterations =  4.5

[...]

     Energy error            =      3.9E-08 Ry
     Gradient error          =      4.2E-31 Ry/Bohr
     Cell gradient error     =      5.7E-04 kbar

     bfgs converged in   7 scf cycles and   6 bfgs steps
     (criteria: energy <  1.0E-05 Ry, force <  1.0E-04 Ry/Bohr, cell <  5.0E-01 kbar)

     End of BFGS Geometry Optimization

     Final enthalpy           =     -17.3267378581 Ry

     File /home/paolo/project_labqsm/Silicon/SCRATCH/gallium_arsenide.bfgs deleted, as requested
Begin final coordinates
     new unit-cell volume =    287.90587 a.u.^3 (    42.66325 Ang^3 )
     density =      5.62987 g/cm^3

CELL_PARAMETERS (alat= 11.21704970)
  -0.467227288   0.000000000   0.467227288
   0.000000000   0.467227288   0.467227288
  -0.467227288   0.467227288  -0.000000000

ATOMIC_POSITIONS (alat)
Ga           -0.0000000000       -0.0000000000       -0.0000000000
As            0.2336136439        0.2336136439        0.2336136439
End final coordinates

     Writing config-only to output data dir /home/paolo/project_labqsm/Silicon/SCRATCH/gallium_arsenide.save/

     Final scf calculation at the relaxed structure.
     The G-vectors are recalculated for the final unit cell
     Results may differ from those at the preceding step.

     Using Slab Decomposition

     bravais-lattice index     =            2
     lattice parameter (alat)  =      11.2170  a.u.
     unit-cell volume          =     287.9059 (a.u.)^3
     number of atoms/cell      =            2
     number of atomic types    =            2
     number of electrons       =         8.00
     number of Kohn-Sham states=            4
     kinetic-energy cutoff     =      60.0000  Ry
     charge density cutoff     =     240.0000  Ry
     scf convergence threshold =      1.0E-10
     mixing beta               =       0.7000
     number of iterations used =            8  plain     mixing
     press convergence thresh. =      5.0E-01
     Exchange-correlation= SLA  PZ   NOGX NOGC
                           (   1   1   0   0   0   0   0)

     celldm(1)=  11.217050  celldm(2)=   0.000000  celldm(3)=   0.000000
     celldm(4)=   0.000000  celldm(5)=   0.000000  celldm(6)=   0.000000

     crystal axes: (cart. coord. in units of alat)
               a(1) = (  -0.467227   0.000000   0.467227 )
               a(2) = (   0.000000   0.467227   0.467227 )
               a(3) = (  -0.467227   0.467227  -0.000000 )

     reciprocal axes: (cart. coord. in units 2 pi/alat)
               b(1) = ( -1.070143 -1.070143  1.070143 )
               b(2) = (  1.070143  1.070143  1.070143 )
               b(3) = ( -1.070143  1.070143 -1.070143 )

     PseudoPot. # 1 for Ga read from file:
     /home/paolo/project_labqsm/pseudopotentials/Ga.pz-bhs.UPF
     MD5 check sum: 09b06f4702dea281feaf053846378b49
     Pseudo is Norm-conserving, Zval =  3.0
     Generated by new atomic code, or converted to UPF format
     Using radial grid of  523 points,  2 beta functions with:
                l(1) =   0
                l(2) =   1

     PseudoPot. # 2 for As read from file:
     /home/paolo/project_labqsm/pseudopotentials/As.pz-bhs.UPF
     MD5 check sum: d67708448008dff3ec15a9356ed645c7
     Pseudo is Norm-conserving, Zval =  5.0
     Generated by new atomic code, or converted to UPF format
     Using radial grid of  525 points,  2 beta functions with:
                l(1) =   0
                l(2) =   1

     atomic species   valence    mass     pseudopotential
        Ga             3.00    69.72300     Ga( 1.00)
        As             5.00    74.92200     As( 1.00)

     24 Sym. Ops. (no inversion) found

   Cartesian axes

     site n.     atom                  positions (alat units)
         1           Ga  tau(   1) = (  -0.0000000  -0.0000000  -0.0000000  )
         2           As  tau(   2) = (   0.2336136   0.2336136   0.2336136  )

     number of k points=    29
                       cart. coord. in units 2pi/alat
        k(    1) = (   0.0000000   0.0000000   0.0000000), wk =   0.0039062
        k(    2) = (  -0.1337679   0.1337679  -0.1337679), wk =   0.0312500
        k(    3) = (  -0.2675357   0.2675357  -0.2675357), wk =   0.0312500
        k(    4) = (  -0.4013036   0.4013036  -0.4013036), wk =   0.0312500
        k(    5) = (   0.5350715  -0.5350715   0.5350715), wk =   0.0156250
        k(    6) = (   0.0000000   0.2675357   0.0000000), wk =   0.0234375
        k(    7) = (  -0.1337679   0.4013036  -0.1337679), wk =   0.0937500
        k(    8) = (  -0.2675357   0.5350715  -0.2675357), wk =   0.0937500
        k(    9) = (   0.6688394  -0.4013036   0.6688394), wk =   0.0937500
        k(   10) = (   0.5350715  -0.2675357   0.5350715), wk =   0.0937500
        k(   11) = (   0.4013036  -0.1337679   0.4013036), wk =   0.0937500
        k(   12) = (   0.2675357   0.0000000   0.2675357), wk =   0.0468750
        k(   13) = (   0.0000000   0.5350715   0.0000000), wk =   0.0234375
        k(   14) = (  -0.1337679   0.6688394  -0.1337679), wk =   0.0937500
        k(   15) = (   0.8026072  -0.2675357   0.8026072), wk =   0.0937500
        k(   16) = (   0.6688394  -0.1337679   0.6688394), wk =   0.0937500
        k(   17) = (   0.5350715   0.0000000   0.5350715), wk =   0.0468750
        k(   18) = (   0.0000000   0.8026072   0.0000000), wk =   0.0234375
        k(   19) = (   0.9363751  -0.1337679   0.9363751), wk =   0.0937500
        k(   20) = (   0.8026072   0.0000000   0.8026072), wk =   0.0468750
        k(   21) = (   0.0000000  -1.0701430   0.0000000), wk =   0.0117188
        k(   22) = (  -0.2675357   0.5350715  -0.0000000), wk =   0.0937500
        k(   23) = (   0.6688394  -0.4013036   0.9363751), wk =   0.1875000
        k(   24) = (   0.5350715  -0.2675357   0.8026072), wk =   0.0937500
        k(   25) = (   0.8026072  -0.2675357   1.0701430), wk =   0.0937500
        k(   26) = (   0.6688394  -0.1337679   0.9363751), wk =   0.1875000
        k(   27) = (   0.5350715   0.0000000   0.8026072), wk =   0.0937500
        k(   28) = (  -0.2675357  -1.0701430   0.0000000), wk =   0.0468750
        k(   29) = (  -0.5350715  -1.0701430   0.0000000), wk =   0.0234375

     Initial potential from superposition of free atoms

     starting charge       7.9979, renormalised to       8.0000
     Starting wfcs are    8 randomized atomic wfcs

     Self-consistent Calculation

[...]

     total energy              =     -17.32670328 Ry
     estimated scf accuracy    <          1.2E-09 Ry

     iteration # 23     ecut=    60.00 Ry     beta= 0.70
     Davidson diagonalization with overlap
     ethr =  1.49E-11,  avg # of iterations =  2.2

     End of self-consistent calculation

[...]

          k = 0.5351 0.0000 0.8026 (  2268 PWs)   bands (ev):

[...]

          k =-0.5351-1.0701 0.0000 (  2244 PWs)   bands (ev):

    -5.2626  -1.5511   1.4171   1.6776

     highest occupied level (ev):     5.1666

!    total energy              =     -17.32670328 Ry
     estimated scf accuracy    <          8.5E-11 Ry

     The total energy is the sum of the following terms:
     one-electron contribution =       3.17300373 Ry
     hartree contribution      =       1.48767601 Ry
     xc contribution           =      -4.82019917 Ry
     ewald contribution        =     -17.16718385 Ry

     convergence has been achieved in  23 iterations

     Forces acting on atoms (cartesian axes, Ry/au):

     atom    1 type  1   force =    -0.00000000    0.00000000   -0.00000000
     atom    2 type  2   force =     0.00000000   -0.00000000    0.00000000
     The non-local contrib.  to forces
     atom    1 type  1   force =     0.00000000   -0.00000000    0.00000000
     atom    2 type  2   force =     0.00000000   -0.00000000    0.00000000
     The ionic contribution  to forces
     atom    1 type  1   force =    -0.00000000    0.00000000    0.00000000
     atom    2 type  2   force =    -0.00000000    0.00000000   -0.00000000
     The local contribution  to forces
     atom    1 type  1   force =    -0.00000000    0.00000000    0.00000000
     atom    2 type  2   force =    -0.00000000    0.00000000    0.00000000
     The core correction contribution to forces
     atom    1 type  1   force =     0.00000000    0.00000000    0.00000000
     atom    2 type  2   force =     0.00000000    0.00000000    0.00000000
     The Hubbard contrib.    to forces
     atom    1 type  1   force =     0.00000000    0.00000000    0.00000000
     atom    2 type  2   force =     0.00000000    0.00000000    0.00000000
     The SCF correction term to forces
     atom    1 type  1   force =    -0.00000000   -0.00000000    0.00000000
     atom    2 type  2   force =     0.00000000    0.00000000   -0.00000000

     Total force =     0.000000     Total SCF correction =     0.000000

     Computing stress (Cartesian axis) and pressure

          total   stress  (Ry/bohr**3)                   (kbar)     P=        0.02
   0.00000011   0.00000000   0.00000000            0.02        0.00        0.00
   0.00000000   0.00000011  -0.00000000            0.00        0.02       -0.00
   0.00000000  -0.00000000   0.00000011            0.00       -0.00        0.02

     Writing all to output data dir /home/paolo/project_labqsm/Silicon/SCRATCH/gallium_arsenide.save/

     General routines

   This run was terminated on:  12:23: 3  25May2024

   JOB DONE.