     Program PWSCF v.7.2 starts on 11Jun2024 at 13:12:20

     Waiting for input...
     Reading input from standard input

     Current dimensions of program PWSCF are:
     Max number of different atomic species (ntypx) = 10
     Max number of k-points (npk) =  40000
     Max angular momentum in pseudopotentials (lmaxx) =  4
     file Ga.pz-dn-rrkjus_psl.0.2.UPF: wavefunction(s)  4S 3D renormalized

     Using Slab Decomposition

     bravais-lattice index     =            2
     lattice parameter (alat)  =      11.2170  a.u.
     unit-cell volume          =     352.8385 (a.u.)^3
     number of atoms/cell      =            2
     number of atomic types    =            2
     number of electrons       =        18.00
     number of Kohn-Sham states=            9
     kinetic-energy cutoff     =      40.0000  Ry
     charge density cutoff     =     320.0000  Ry
     scf convergence threshold =      1.0E-08
     mixing beta               =       0.7000
     number of iterations used =            8  plain     mixing
     energy convergence thresh.=      1.0E-04
     force convergence thresh. =      1.0E-03
     press convergence thresh. =      5.0E-01
     Exchange-correlation= LDA
                           (   1   1   0   0   0   0   0)
     nstep                     =           50

     celldm(1)=  11.217050  celldm(2)=   0.000000  celldm(3)=   0.000000
     celldm(4)=   0.000000  celldm(5)=   0.000000  celldm(6)=   0.000000

     crystal axes: (cart. coord. in units of alat)
               a(1) = (  -0.500000   0.000000   0.500000 )
               a(2) = (   0.000000   0.500000   0.500000 )
               a(3) = (  -0.500000   0.500000   0.000000 )

     reciprocal axes: (cart. coord. in units 2 pi/alat)
               b(1) = ( -1.000000 -1.000000  1.000000 )
               b(2) = (  1.000000  1.000000  1.000000 )
               b(3) = ( -1.000000  1.000000 -1.000000 )

     PseudoPot. # 1 for Ga read from file:
     /home/paolo/LABQSM/pseudo/Ga.pz-dn-rrkjus_psl.0.2.UPF
     MD5 check sum: 337958ae198bc3768054a43796a587a1
     Pseudo is Ultrasoft + core correction, Zval = 13.0
     Generated using "atomic" code by A. Dal Corso  v.5.0.2 svn rev. 9415
     Using radial grid of 1205 points,  6 beta functions with:
                l(1) =   0
                l(2) =   0
                l(3) =   1
                l(4) =   1
                l(5) =   2
                l(6) =   2
     Q(r) pseudized with 0 coefficients

     PseudoPot. # 2 for As read from file:
     /home/paolo/LABQSM/pseudo/As.pz-n-rrkjus_psl.0.2.UPF
     MD5 check sum: f80104272e9b817acfe428865afbdb7e
     Pseudo is Ultrasoft + core correction, Zval =  5.0
     Generated using "atomic" code by A. Dal Corso  v.5.0.2 svn rev. 9415
     Using radial grid of 1209 points,  4 beta functions with:
                l(1) =   0
                l(2) =   0
                l(3) =   1
                l(4) =   1
     Q(r) pseudized with 0 coefficients

     atomic species   valence    mass     pseudopotential
        Ga            13.00    69.72300     Ga( 1.00)
        As             5.00    74.92200     As( 1.00)

     24 Sym. Ops. (no inversion) found

   Cartesian axes

     site n.     atom                  positions (alat units)
         1           Ga  tau(   1) = (   0.0000000   0.0000000   0.0000000  )
         2           As  tau(   2) = (   0.2500000   0.2500000   0.2500000  )

     number of k points=    29
                       cart. coord. in units 2pi/alat
        k(    1) = (   0.0000000   0.0000000   0.0000000), wk =   0.0039062
        k(    2) = (  -0.1250000   0.1250000  -0.1250000), wk =   0.0312500
        k(    3) = (  -0.2500000   0.2500000  -0.2500000), wk =   0.0312500
        k(    4) = (  -0.3750000   0.3750000  -0.3750000), wk =   0.0312500
        k(    5) = (   0.5000000  -0.5000000   0.5000000), wk =   0.0156250
        k(    6) = (   0.0000000   0.2500000   0.0000000), wk =   0.0234375
        k(    7) = (  -0.1250000   0.3750000  -0.1250000), wk =   0.0937500
        k(    8) = (  -0.2500000   0.5000000  -0.2500000), wk =   0.0937500
        k(    9) = (   0.6250000  -0.3750000   0.6250000), wk =   0.0937500
        k(   10) = (   0.5000000  -0.2500000   0.5000000), wk =   0.0937500
        k(   11) = (   0.3750000  -0.1250000   0.3750000), wk =   0.0937500
        k(   12) = (   0.2500000   0.0000000   0.2500000), wk =   0.0468750
        k(   13) = (   0.0000000   0.5000000   0.0000000), wk =   0.0234375
        k(   14) = (  -0.1250000   0.6250000  -0.1250000), wk =   0.0937500
        k(   15) = (   0.7500000  -0.2500000   0.7500000), wk =   0.0937500
        k(   16) = (   0.6250000  -0.1250000   0.6250000), wk =   0.0937500
        k(   17) = (   0.5000000   0.0000000   0.5000000), wk =   0.0468750
        k(   18) = (   0.0000000   0.7500000   0.0000000), wk =   0.0234375
        k(   19) = (   0.8750000  -0.1250000   0.8750000), wk =   0.0937500
        k(   20) = (   0.7500000   0.0000000   0.7500000), wk =   0.0468750
        k(   21) = (   0.0000000  -1.0000000   0.0000000), wk =   0.0117188
        k(   22) = (  -0.2500000   0.5000000   0.0000000), wk =   0.0937500
        k(   23) = (   0.6250000  -0.3750000   0.8750000), wk =   0.1875000
        k(   24) = (   0.5000000  -0.2500000   0.7500000), wk =   0.0937500
        k(   25) = (   0.7500000  -0.2500000   1.0000000), wk =   0.0937500
        k(   26) = (   0.6250000  -0.1250000   0.8750000), wk =   0.1875000
        k(   27) = (   0.5000000   0.0000000   0.7500000), wk =   0.0937500
        k(   28) = (  -0.2500000  -1.0000000   0.0000000), wk =   0.0468750
        k(   29) = (  -0.5000000  -1.0000000   0.0000000), wk =   0.0234375

     Initial potential from superposition of free atoms

     starting charge      17.9975, renormalised to      18.0000
     Starting wfcs are   13 randomized atomic wfcs

     Self-consistent Calculation

     iteration #  1     ecut=    40.00 Ry     beta= 0.70
     Davidson diagonalization with overlap
     ethr =  1.00E-02,  avg # of iterations =  1.2

     Threshold (ethr) on eigenvalues was too large:
     Diagonalizing with lowered threshold

     Davidson diagonalization with overlap
     ethr =  2.94E-04,  avg # of iterations =  2.0

     total energy              =    -190.69333297 Ry
     estimated scf accuracy    <       0.04730303 Ry

[...]

     End of self-consistent calculation

          k = 0.0000 0.0000 0.0000 (  1459 PWs)   bands (ev):

    -9.8714  -9.8714  -9.8714  -9.8225  -9.8225  -7.0278   4.0815   4.8156
     4.8156

          k =-0.1250 0.1250-0.1250 (  1480 PWs)   bands (ev):

[...]

     highest occupied level (ev):     4.8156

!    total energy              =    -190.70811077 Ry
     estimated scf accuracy    <          8.1E-09 Ry

     The total energy is the sum of the following terms:
     one-electron contribution =    -119.39003151 Ry
     hartree contribution      =      74.21581752 Ry
     xc contribution           =     -56.94421005 Ry
     ewald contribution        =     -88.58968672 Ry

     convergence has been achieved in  11 iterations

     Forces acting on atoms (cartesian axes, Ry/au):

     atom    1 type  1   force =     0.00000000   -0.00000000    0.00000000
     atom    2 type  2   force =     0.00000000    0.00000000   -0.00000000
     The non-local contrib.  to forces
     atom    1 type  1   force =    -0.00000000    0.00000000   -0.00000000
     atom    2 type  2   force =     0.00000000    0.00000000    0.00000000
     The ionic contribution  to forces
     atom    1 type  1   force =    -0.00000000   -0.00000000   -0.00000000
     atom    2 type  2   force =     0.00000000    0.00000000    0.00000000
     The local contribution  to forces
     atom    1 type  1   force =     0.00000000   -0.00000000   -0.00000000
     atom    2 type  2   force =    -0.00000000    0.00000000   -0.00000000
     The core correction contribution to forces
     atom    1 type  1   force =     0.00000000   -0.00000000   -0.00000000
     atom    2 type  2   force =     0.00000000   -0.00000000   -0.00000000
     The Hubbard contrib.    to forces
     atom    1 type  1   force =     0.00000000    0.00000000    0.00000000
     atom    2 type  2   force =     0.00000000    0.00000000    0.00000000
     The SCF correction term to forces
     atom    1 type  1   force =    -0.00000000    0.00000000    0.00000000
     atom    2 type  2   force =     0.00000000   -0.00000000   -0.00000000

     Total force =     0.000000     Total SCF correction =     0.000000

     Computing stress (Cartesian axis) and pressure

          total   stress  (Ry/bohr**3)                   (kbar)     P=      -88.50
  -0.00060160  -0.00000000  -0.00000000          -88.50       -0.00       -0.00
  -0.00000000  -0.00060160   0.00000000           -0.00      -88.50        0.00
  -0.00000000   0.00000000  -0.00060160           -0.00        0.00      -88.50

     BFGS Geometry Optimization
     Energy error            =      0.0E+00 Ry
     Gradient error          =      3.3E-32 Ry/Bohr
     Cell gradient error     =      8.8E+01 kbar

     number of scf cycles    =   1
     number of bfgs steps    =   0

     enthalpy           new  =    -190.7081107673 Ry

     new trust radius        =       0.0565025339 bohr
     new conv_thr            =       0.0000000100 Ry

     new unit-cell volume =    337.15657 a.u.^3 (    49.96145 Ang^3 )
     density =      4.80748 g/cm^3

CELL_PARAMETERS (alat= 11.21704970)
  -0.492479963   0.000000000   0.492479963
  -0.000000000   0.492479963   0.492479963
  -0.492479963   0.492479963   0.000000000

ATOMIC_POSITIONS (alat)
Ga           -0.0000000000       -0.0000000000        0.0000000000
As            0.2462399816        0.2462399816        0.2462399816

     Writing config-only to output data dir ./SCRATCH/gallium arsenide.save/
     NEW-OLD atomic charge density approx. for the potential
     extrapolated charge   17.16289, renormalised to   18.00000

[...]

     Energy error            =      8.5E-03 Ry
     Gradient error          =      6.7E-32 Ry/Bohr
     Cell gradient error     =      7.2E+01 kbar

[...]

     enthalpy           old  =    -190.7081107673 Ry
     enthalpy           new  =    -190.7166395430 Ry

     CASE: enthalpy          _new < enthalpy          _old

[...]

     iteration # 16     ecut=    40.00 Ry     beta= 0.70
     Davidson diagonalization with overlap
     c_bands:  1 eigenvalues not converged
     ethr =  6.35E-11,  avg # of iterations =  5.9

[...]

     number of scf cycles    =   5
     number of bfgs steps    =   4

     enthalpy           old  =    -190.7274343497 Ry
     enthalpy           new  =    -190.7277853399 Ry

     CASE: enthalpy          _new < enthalpy          _old

     new trust radius        =       0.0032612511 bohr
     new conv_thr            =            1.0E-10 Ry

     new unit-cell volume =    296.88425 a.u.^3 (    43.99371 Ang^3 )
     density =      5.45961 g/cm^3

[...]

ATOMIC_POSITIONS (alat)
Ga            0.0000000000        0.0000000000        0.0000000000
As            0.2360172514        0.2360172514        0.2360172514

     Writing config-only to output data dir ./SCRATCH/gallium arsenide.save/
     NEW-OLD atomic charge density approx. for the potential
     extrapolated charge   17.94888, renormalised to   18.00000

[...]

     Energy error            =      7.6E-06 Ry
     Gradient error          =      1.7E-32 Ry/Bohr
     Cell gradient error     =      2.1E-01 kbar

     bfgs converged in   6 scf cycles and   5 bfgs steps
     (criteria: energy <  1.0E-04 Ry, force <  1.0E-03 Ry/Bohr, cell <  5.0E-01 kbar)

     End of BFGS Geometry Optimization

     Final enthalpy           =    -190.7277928943 Ry

     File ./SCRATCH/gallium arsenide.bfgs deleted, as requested
Begin final coordinates
     new unit-cell volume =    296.88425 a.u.^3 (    43.99371 Ang^3 )
     density =      5.45961 g/cm^3

CELL_PARAMETERS (alat= 11.21704970)
  -0.472034503   0.000000000   0.472034503
   0.000000000   0.472034503   0.472034503
  -0.472034503   0.472034503   0.000000000

ATOMIC_POSITIONS (alat)
Ga            0.0000000000        0.0000000000        0.0000000000
As            0.2360172514        0.2360172514        0.2360172514
End final coordinates

     Writing config-only to output data dir ./SCRATCH/gallium arsenide.save/

     Final scf calculation at the relaxed structure.
     The G-vectors are recalculated for the final unit cell
     Results may differ from those at the preceding step.

     Using Slab Decomposition

     bravais-lattice index     =            2
     lattice parameter (alat)  =      11.2170  a.u.
     unit-cell volume          =     296.8843 (a.u.)^3
     number of atoms/cell      =            2
     number of atomic types    =            2
     number of electrons       =        18.00
     number of Kohn-Sham states=            9
     kinetic-energy cutoff     =      40.0000  Ry
     charge density cutoff     =     320.0000  Ry
     scf convergence threshold =      1.0E-10
     mixing beta               =       0.7000
     number of iterations used =            8  plain     mixing
     press convergence thresh. =      5.0E-01
     Exchange-correlation= LDA
                           (   1   1   0   0   0   0   0)

     celldm(1)=  11.217050  celldm(2)=   0.000000  celldm(3)=   0.000000
     celldm(4)=   0.000000  celldm(5)=   0.000000  celldm(6)=   0.000000

     crystal axes: (cart. coord. in units of alat)
               a(1) = (  -0.472035   0.000000   0.472035 )
               a(2) = (   0.000000   0.472035   0.472035 )
               a(3) = (  -0.472035   0.472035   0.000000 )

     reciprocal axes: (cart. coord. in units 2 pi/alat)
               b(1) = ( -1.059245 -1.059245  1.059245 )
               b(2) = (  1.059245  1.059245  1.059245 )
               b(3) = ( -1.059245  1.059245 -1.059245 )

     PseudoPot. # 1 for Ga read from file:
     /home/paolo/LABQSM/pseudo/Ga.pz-dn-rrkjus_psl.0.2.UPF
     MD5 check sum: 337958ae198bc3768054a43796a587a1
     Pseudo is Ultrasoft + core correction, Zval = 13.0
     Generated using "atomic" code by A. Dal Corso  v.5.0.2 svn rev. 9415
     Using radial grid of 1205 points,  6 beta functions with:
                l(1) =   0
                l(2) =   0
                l(3) =   1
                l(4) =   1
                l(5) =   2
                l(6) =   2
     Q(r) pseudized with 0 coefficients

     PseudoPot. # 2 for As read from file:
     /home/paolo/LABQSM/pseudo/As.pz-n-rrkjus_psl.0.2.UPF
     MD5 check sum: f80104272e9b817acfe428865afbdb7e
     Pseudo is Ultrasoft + core correction, Zval =  5.0
     Generated using "atomic" code by A. Dal Corso  v.5.0.2 svn rev. 9415
     Using radial grid of 1209 points,  4 beta functions with:
                l(1) =   0
                l(2) =   0
                l(3) =   1
                l(4) =   1
     Q(r) pseudized with 0 coefficients

     atomic species   valence    mass     pseudopotential
        Ga            13.00    69.72300     Ga( 1.00)
        As             5.00    74.92200     As( 1.00)

     24 Sym. Ops. (no inversion) found

   Cartesian axes

     site n.     atom                  positions (alat units)
         1           Ga  tau(   1) = (   0.0000000   0.0000000   0.0000000  )
         2           As  tau(   2) = (   0.2360173   0.2360173   0.2360173  )

     number of k points=    29
                       cart. coord. in units 2pi/alat
        k(    1) = (   0.0000000   0.0000000   0.0000000), wk =   0.0039062
        k(    2) = (  -0.1324056   0.1324056  -0.1324056), wk =   0.0312500
        k(    3) = (  -0.2648112   0.2648112  -0.2648112), wk =   0.0312500
        k(    4) = (  -0.3972167   0.3972167  -0.3972167), wk =   0.0312500
        k(    5) = (   0.5296223  -0.5296223   0.5296223), wk =   0.0156250
        k(    6) = (  -0.0000000   0.2648112  -0.0000000), wk =   0.0234375
        k(    7) = (  -0.1324056   0.3972167  -0.1324056), wk =   0.0937500
        k(    8) = (  -0.2648112   0.5296223  -0.2648112), wk =   0.0937500
        k(    9) = (   0.6620279  -0.3972167   0.6620279), wk =   0.0937500
        k(   10) = (   0.5296223  -0.2648112   0.5296223), wk =   0.0937500
        k(   11) = (   0.3972167  -0.1324056   0.3972167), wk =   0.0937500
        k(   12) = (   0.2648112   0.0000000   0.2648112), wk =   0.0468750
        k(   13) = (  -0.0000000   0.5296223  -0.0000000), wk =   0.0234375
        k(   14) = (  -0.1324056   0.6620279  -0.1324056), wk =   0.0937500
        k(   15) = (   0.7944335  -0.2648112   0.7944335), wk =   0.0937500
        k(   16) = (   0.6620279  -0.1324056   0.6620279), wk =   0.0937500
        k(   17) = (   0.5296223   0.0000000   0.5296223), wk =   0.0468750
        k(   18) = (  -0.0000000   0.7944335  -0.0000000), wk =   0.0234375
        k(   19) = (   0.9268390  -0.1324056   0.9268390), wk =   0.0937500
        k(   20) = (   0.7944335   0.0000000   0.7944335), wk =   0.0468750
        k(   21) = (   0.0000000  -1.0592446   0.0000000), wk =   0.0117188
        k(   22) = (  -0.2648112   0.5296223  -0.0000000), wk =   0.0937500
        k(   23) = (   0.6620279  -0.3972167   0.9268390), wk =   0.1875000
        k(   24) = (   0.5296223  -0.2648112   0.7944335), wk =   0.0937500
        k(   25) = (   0.7944335  -0.2648112   1.0592446), wk =   0.0937500
        k(   26) = (   0.6620279  -0.1324056   0.9268390), wk =   0.1875000
        k(   27) = (   0.5296223   0.0000000   0.7944335), wk =   0.0937500
        k(   28) = (  -0.2648112  -1.0592446   0.0000000), wk =   0.0468750
        k(   29) = (  -0.5296223  -1.0592446   0.0000000), wk =   0.0234375

     Initial potential from superposition of free atoms

     starting charge      17.9975, renormalised to      18.0000
     Starting wfcs are   13 randomized atomic wfcs

     Self-consistent Calculation

[...]

     total energy              =    -190.72627563 Ry
     estimated scf accuracy    <          4.0E-10 Ry

     iteration # 15     ecut=    40.00 Ry     beta= 0.70
     Davidson diagonalization with overlap
     ethr =  2.21E-12,  avg # of iterations =  2.6

     End of self-consistent calculation

[...]

          k = 0.5296 0.0000 0.7944 (  1258 PWs)   bands (ev):

[...]

          k =-0.5296-1.0592 0.0000 (  1256 PWs)   bands (ev):

    -8.2584  -8.1201  -8.1045  -8.0805  -8.0628  -3.5188  -0.0347   3.0945
     3.2759

     highest occupied level (ev):     6.7870

!    total energy              =    -190.72627563 Ry
     estimated scf accuracy    <          2.7E-12 Ry

     The total energy is the sum of the following terms:
     one-electron contribution =    -110.90922173 Ry
     hartree contribution      =      71.15146134 Ry
     xc contribution           =     -57.13036761 Ry
     ewald contribution        =     -93.83814764 Ry

     convergence has been achieved in  15 iterations

     Forces acting on atoms (cartesian axes, Ry/au):

     atom    1 type  1   force =     0.00000000    0.00000000    0.00000000
     atom    2 type  2   force =    -0.00000000   -0.00000000   -0.00000000
     The non-local contrib.  to forces
     atom    1 type  1   force =    -0.00000000    0.00000000    0.00000000
     atom    2 type  2   force =    -0.00000000    0.00000000   -0.00000000
     The ionic contribution  to forces
     atom    1 type  1   force =    -0.00000000   -0.00000000    0.00000000
     atom    2 type  2   force =     0.00000000    0.00000000    0.00000000
     The local contribution  to forces
     atom    1 type  1   force =     0.00000000   -0.00000000   -0.00000000
     atom    2 type  2   force =    -0.00000000    0.00000000    0.00000000
     The core correction contribution to forces
     atom    1 type  1   force =     0.00000000   -0.00000000   -0.00000000
     atom    2 type  2   force =    -0.00000000   -0.00000000   -0.00000000
     The Hubbard contrib.    to forces
     atom    1 type  1   force =     0.00000000    0.00000000    0.00000000
     atom    2 type  2   force =     0.00000000    0.00000000    0.00000000
     The SCF correction term to forces
     atom    1 type  1   force =    -0.00000000   -0.00000000   -0.00000000
     atom    2 type  2   force =     0.00000000   -0.00000000   -0.00000000

     Total force =     0.000000     Total SCF correction =     0.000000

     Computing stress (Cartesian axis) and pressure

          total   stress  (Ry/bohr**3)                   (kbar)     P=       -1.24
  -0.00000845   0.00000000   0.00000000           -1.24        0.00        0.00
   0.00000000  -0.00000845  -0.00000000            0.00       -1.24       -0.00
   0.00000000   0.00000000  -0.00000845            0.00        0.00       -1.24

     Writing all to output data dir ./SCRATCH/gallium arsenide.save/

     General routines

   This run was terminated on:  13:15:34  11Jun2024

   JOB DONE.