     Program PWSCF v.7.2 starts on 15Jun2024 at 10:34:47

     Waiting for input...
     Reading input from standard input

     Current dimensions of program PWSCF are:
     Max number of different atomic species (ntypx) = 10
     Max number of k-points (npk) =  40000
     Max angular momentum in pseudopotentials (lmaxx) =  4

     Using Slab Decomposition

     bravais-lattice index     =            4
     lattice parameter (alat)  =       3.8140  a.u.
     unit-cell volume          =      78.8315 (a.u.)^3
     number of atoms/cell      =            4
     number of atomic types    =            2
     number of electrons       =        52.00
     number of Kohn-Sham states=           26
     kinetic-energy cutoff     =      80.0000  Ry
     charge density cutoff     =     320.0000  Ry
     scf convergence threshold =      1.0E-08
     mixing beta               =       0.7000
     number of iterations used =            8  plain     mixing
     Exchange-correlation= PBE
                           (   1   4   3   4   0   0   0)

     celldm(1)=   3.814000  celldm(2)=   0.000000  celldm(3)=   1.640692
     celldm(4)=   0.000000  celldm(5)=   0.000000  celldm(6)=   0.000000

     crystal axes: (cart. coord. in units of alat)
               a(1) = (   1.000000   0.000000   0.000000 )
               a(2) = (  -0.500000   0.866025   0.000000 )
               a(3) = (   0.000000   0.000000   1.640692 )

     reciprocal axes: (cart. coord. in units 2 pi/alat)
               b(1) = (  1.000000  0.577350 -0.000000 )
               b(2) = (  0.000000  1.154701  0.000000 )
               b(3) = (  0.000000 -0.000000  0.609499 )

     PseudoPot. # 1 for Zn read from file:
     /home/paolo/project_labqsm/pseudopotentials/Zn_ONCV_PBE-1.2.upf
     MD5 check sum: 732f41c0cd6489a4b50a33b4ec99a2d3
     Pseudo is Norm-conserving, Zval = 20.0
     Generated using ONCVPSP code by D. R. Hamann
     Using radial grid of  602 points,  6 beta functions with:
                l(1) =   0
                l(2) =   0
                l(3) =   1
                l(4) =   1
                l(5) =   2
                l(6) =   2

     PseudoPot. # 2 for S  read from file:
     /home/paolo/project_labqsm/pseudopotentials/S_ONCV_PBE-1.2.upf
     MD5 check sum: f9d020296ee6110346977bfd66d424f6
     Pseudo is Norm-conserving, Zval =  6.0
     Generated using ONCVPSP code by D. R. Hamann
     Using radial grid of  602 points,  4 beta functions with:
                l(1) =   0
                l(2) =   0
                l(3) =   1
                l(4) =   1

     atomic species   valence    mass     pseudopotential
        Zn            20.00    65.38000     Zn( 1.00)
        S              6.00    32.06000     S ( 1.00)

      6 Sym. Ops. (no inversion) found

   Cartesian axes

     site n.     atom                  positions (alat units)
         1           Zn  tau(   1) = (   0.0000000   0.0000000   0.0000000  )
         2           S   tau(   2) = (   0.0000000   0.0000000   0.3723729  )
         3           Zn  tau(   3) = (   0.0000000   0.5773503   0.5000000  )
         4           S   tau(   4) = (   0.0000000   0.5773503   0.8723729  )

     number of k points=    34
                       cart. coord. in units 2pi/alat
        k(    1) = (   0.0000000   0.0000000   0.0000000), wk =   0.0092593
        k(    2) = (   0.0000000   0.0000000   0.1015831), wk =   0.0185185
        k(    3) = (   0.0000000   0.0000000   0.2031663), wk =   0.0185185
        k(    4) = (   0.0000000   0.0000000  -0.3047494), wk =   0.0092593
        k(    5) = (   0.0000000   0.1924501   0.0000000), wk =   0.0555556
        k(    6) = (   0.0000000   0.1924501   0.1015831), wk =   0.0555556
        k(    7) = (   0.0000000   0.1924501   0.2031663), wk =   0.0555556
        k(    8) = (   0.0000000   0.1924501  -0.3047494), wk =   0.0555556
        k(    9) = (   0.0000000   0.3849002   0.0000000), wk =   0.0555556
        k(   10) = (   0.0000000   0.3849002   0.1015831), wk =   0.0555556
        k(   11) = (   0.0000000   0.3849002   0.2031663), wk =   0.0555556
        k(   12) = (   0.0000000   0.3849002  -0.3047494), wk =   0.0555556
        k(   13) = (   0.0000000  -0.5773503   0.0000000), wk =   0.0277778
        k(   14) = (   0.0000000  -0.5773503   0.1015831), wk =   0.0555556
        k(   15) = (   0.0000000  -0.5773503   0.2031663), wk =   0.0555556
        k(   16) = (   0.0000000  -0.5773503  -0.3047494), wk =   0.0277778
        k(   17) = (   0.1666667   0.2886751   0.0000000), wk =   0.0555556
        k(   18) = (   0.1666667   0.2886751   0.1015831), wk =   0.1111111
        k(   19) = (   0.1666667   0.2886751   0.2031663), wk =   0.1111111
        k(   20) = (   0.1666667   0.2886751  -0.3047494), wk =   0.0555556
        k(   21) = (   0.1666667   0.4811252   0.0000000), wk =   0.1111111
        k(   22) = (   0.1666667   0.4811252   0.1015831), wk =   0.1111111
        k(   23) = (   0.1666667   0.4811252   0.2031663), wk =   0.1111111
        k(   24) = (   0.1666667   0.4811252  -0.3047494), wk =   0.1111111
        k(   25) = (   0.3333333   0.5773503   0.0000000), wk =   0.0185185
        k(   26) = (   0.3333333   0.5773503   0.1015831), wk =   0.0370370
        k(   27) = (   0.3333333   0.5773503   0.2031663), wk =   0.0370370
        k(   28) = (   0.3333333   0.5773503  -0.3047494), wk =   0.0185185
        k(   29) = (   0.0000000  -0.1924501   0.1015831), wk =   0.0555556
        k(   30) = (   0.0000000  -0.1924501   0.2031663), wk =   0.0555556
        k(   31) = (   0.0000000  -0.3849002   0.1015831), wk =   0.0555556
        k(   32) = (   0.0000000  -0.3849002   0.2031663), wk =   0.0555556
        k(   33) = (  -0.1666667  -0.4811252   0.1015831), wk =   0.1111111
        k(   34) = (  -0.1666667  -0.4811252   0.2031663), wk =   0.1111111

     Initial potential from superposition of free atoms

     starting charge      51.9339, renormalised to      52.0000
     Starting wfcs are random

     Self-consistent Calculation

     iteration #  1     ecut=    80.00 Ry     beta= 0.70
     Davidson diagonalization with overlap
     ethr =  1.00E-02,  avg # of iterations = 11.1

     total energy              =    -786.47458079 Ry
     estimated scf accuracy    <       4.78424215 Ry

[...]

     total energy              =    -788.52090253 Ry
     estimated scf accuracy    <       0.00000004 Ry

     iteration # 11     ecut=    80.00 Ry     beta= 0.70
     Davidson diagonalization with overlap
     ethr =  7.74E-11,  avg # of iterations =  3.9

     End of self-consistent calculation

          k = 0.0000 0.0000 0.0000 (   965 PWs)   bands (ev):

   -81.6463 -72.6768 -41.2915 -41.2915 -35.7672 -30.5191 -30.5191 -25.0618
    24.8221  24.8221  28.3193  29.2362  29.2362  37.2506  38.0123  38.0123
    44.1893  44.1893  45.9903  57.4919  60.0261  76.7934  77.0182  77.0182
    78.9371  78.9371

[...]

          k = 0.0000-0.3849 0.2032 (   950 PWs)   bands (ev):

[...]

          k =-0.1667-0.4811 0.1016 (   947 PWs)   bands (ev):

[...]

          k =-0.1667-0.4811 0.2032 (   954 PWs)   bands (ev):

   -81.5166 -72.5652 -41.6144 -41.3618 -36.1158 -30.8089 -30.4544 -24.9990
    23.6753  24.6746  27.7693  31.0431  35.2898  37.2510  38.0006  41.9129
    44.3198  46.8369  50.2335  53.8994  58.5648  61.5538  65.5690  69.8216
    72.2316  77.4232

     highest occupied level (ev):    81.4333

!    total energy              =    -788.52090254 Ry
     estimated scf accuracy    <          1.4E-10 Ry

     The total energy is the sum of the following terms:
     one-electron contribution =    -289.39388728 Ry
     hartree contribution      =     244.74129895 Ry
     xc contribution           =     -95.87774745 Ry
     ewald contribution        =    -647.99056676 Ry

     convergence has been achieved in  11 iterations

     Writing all to output data dir ./SCRATCH/zns_w.save/

     General routines

   This run was terminated on:  10:35: 8  15Jun2024

   JOB DONE.